&CONTROL
prefix='LaO-byx-80'
calculation='scf'
verbosity='low'
restart_mode='from_scratch'
nstep=100
tprnfor=.true.
forc_conv_thr=1.d-5
pseudo_dir='./'
wf_collect=.true.
/
&SYSTEM
ibrav=1
celldm(1)=21.4
nat=80
ntyp=2
ecutwfc=35
ecutrho=300
occupations='fixed'
nspin=1
/
&ELECTRONS
startingpot='file'
conv_thr=1.d-9
/
&IONS
/
&CELL
/
ATOMIC_SPECIES
'O'   15.999  'O.pbe-n-rrkjus_psl.0.1.UPF'	
'La'  138.91  'La.pbe-nsp-van.UPF'
ATOMIC_POSITIONS alat
La       0.249999988   0.249999988   0.249999988
La       0.250000019   0.750000026   0.749999975
La       0.750000026   0.749999975   0.250000019
La       0.749999975   0.250000019   0.750000026
La      -0.028233099  -0.000000006   0.249999996
La       0.528233087  -0.000000016   0.750000015
La       0.249999996  -0.028233099  -0.000000006
La      -0.000000006   0.249999996  -0.028233099
La       0.750000015   0.528233087  -0.000000016
La      -0.000000016   0.750000015   0.528233087
La       0.028233099   0.000000006   0.750000004
La       0.471766903   0.000000016   0.249999985
La       0.750000004   0.028233099   0.000000006
La       0.000000006   0.750000004   0.028233099
La       0.249999985   0.471766903   0.000000016
La       0.000000016   0.249999985   0.471766903
O        0.390923718   0.147910334   0.377052568
O        0.109076297  -0.147910308   0.877052590
O       -0.390923716   0.647910326   0.122947432
O        0.890923717   0.352089648  -0.377052555
O        0.377052568   0.390923718   0.147910334
O        0.147910334   0.377052568   0.390923718
O        0.877052590   0.109076297  -0.147910308
O       -0.147910308   0.877052590   0.109076297
O        0.122947432  -0.390923716   0.647910326
O        0.647910326   0.122947432  -0.390923716
O       -0.377052555   0.890923717   0.352089648
O        0.352089648  -0.377052555   0.890923717
O       -0.390923718  -0.147910334  -0.377052568
O        0.890923703   0.147910308   0.122947410
O        0.390923716   0.352089674   0.877052568
O        0.109076283   0.647910352   0.377052555
O       -0.377052568  -0.390923718  -0.147910334
O       -0.147910334  -0.377052568  -0.390923718
O        0.122947410   0.890923703   0.147910308
O        0.147910308   0.122947410   0.890923703
O        0.877052568   0.390923716   0.352089674
O        0.352089674   0.877052568   0.390923716
O        0.377052555   0.109076283   0.647910352
O        0.647910352   0.377052555   0.109076283
La       0.750000012   0.750000012   0.750000012
La       0.749999981   1.249999974   1.250000025
La       1.249999974   1.250000025   0.749999981
La       1.250000025   0.749999981   1.249999974
La       0.471766908   0.500000023   0.749999975
La       1.028233117   0.499999997   1.249999983
La       0.749999975   0.471766908   0.500000023
La       0.500000023   0.749999975   0.471766908
La       1.249999983   1.028233117   0.499999997
La       0.499999997   1.249999983   1.028233117
La       0.528233082   0.499999977   1.250000025
La       0.971766883   0.500000003   0.750000017
La       1.250000025   0.528233082   0.499999977
La       0.499999977   1.250000025   0.528233082
La       0.750000017   0.971766883   0.500000003
La       0.500000003   0.750000017   0.971766883
O        0.890923725   0.647910327   0.877052576
O        0.609076270   0.352089648   1.377052580
O        0.109076278   1.147910335   0.622947436
O        1.390923696   0.852089665   0.122947421
O        0.877052576   0.890923725   0.647910327
O        0.647910327   0.877052576   0.890923725
O        1.377052580   0.609076270   0.352089648
O        0.352089648   1.377052580   0.609076270
O        0.622947436   0.109076278   1.147910335
O        1.147910335   0.622947436   0.109076278
O        0.122947421   1.390923696   0.852089665
O        0.852089665   0.122947421   1.390923696
O        0.109076275   0.352089673   0.122947424
O        1.390923720   0.647910352   0.622947420
O        0.890923722   0.852089665   1.377052564
O        0.609076294   1.147910335   0.877052579
O        0.122947424   0.109076275   0.352089673
O        0.352089673   0.122947424   0.109076275
O        0.622947420   1.390923720   0.647910352
O        0.647910352   0.622947420   1.390923720
O        1.377052564   0.890923722   0.852089665
O        0.852089665   1.377052564   0.890923722
O        0.877052579   0.609076294   1.147910335
O        1.147910335   0.877052579   0.609076294
K_POINTS automatic
2 2 2 0 0 0 
