Dielectric contant and Born Charges for cubic byxbiite 80 atoms
&inputph
  prefix='LaO-byx-80'  
  tr2_ph=1.0d-14,
  epsil=.true.,
  fildyn='LaO_80.dynG',
  trans=.false.
 /
0.0 0.0 0.0
