phonons CrI3_mono at gamma
&inputph
  tr2_ph = 1.0d-14,
  prefix ='CrI3hex',
  outdir = './',
  fildyn = 'cri3.dyn'
  epsil = .true.
  zeu = .true.
  trans= .true.
  ldisp=.true. 
  nq1 = 4 
  nq2 = 4 
  nq3 = 1 
/
0.0 0.0 0.0  
