 &control
    calculation = 'scf'
    prefix='GRIR'
    max_seconds=20000 !42000
    restart_mode='from_scratch'
    pseudo_dir='./',
    outdir='./',
    disk_io = 'none'
 /
 &system
    ibrav=  4
    celldm(1) = 46.5334237988185d0
    celldm(3) =  1.15276608084821
    nat=  443
    ntyp= 2,
    ecutwfc=30
    occupations = 'smearing'
        smearing='mv'
        degauss=0.025d0
    nspin = 2 
    starting_magnetization(1) = +.00
    starting_magnetization(2) = +.00
 /
 &electrons
    conv_thr =  1.0d-5
    mixing_beta=0.3d0
    mixing_mode='local-TF'
    startingwfc='atomic'
    diagonalization='david'
    electron_maxstep = 1
  /
ATOMIC_SPECIES
 C    12.010   C.pbe-paw_kj-x.UPF
 Ir  192.22   Ir.pbe-paw_kj.UPF
K_POINTS {automatic}
2 2 2 0 0 0
ATOMIC_POSITIONS (crystal)
C   0.00000000000    0.00000000000    0.29309767430
 C  0.03333333333    0.06666666667    0.29309767430
C   0.10000000000    0.00000000000    0.29309767430
 C  0.13333333333    0.06666666667    0.29309767430
C   0.20000000000    0.00000000000    0.29309767430
 C  0.23333333333    0.06666666667    0.29309767430
C   0.30000000000    0.00000000000    0.29309767430
 C  0.33333333333    0.06666666667    0.29309767430
C   0.40000000000    0.00000000000    0.29309767430
 C  0.43333333333    0.06666666667    0.29309767430
C   0.50000000000    0.00000000000    0.29309767430
 C  0.53333333333    0.06666666667    0.29309767430
C   0.60000000000    0.00000000000    0.29309767430
 C  0.63333333333    0.06666666667    0.29309767430
C   0.70000000000    0.00000000000    0.29309767430
 C  0.73333333333    0.06666666667    0.29309767430
C   0.80000000000    0.00000000000    0.29309767430
 C  0.83333333333    0.06666666667    0.29309767430
C   0.90000000000    0.00000000000    0.29309767430
 C  0.93333333333    0.06666666667    0.29309767430
C   0.00000000000    0.10000000000    0.29309767430
 C  0.03333333333    0.16666666667    0.29309767430
C   0.10000000000    0.10000000000    0.29309767430
 C  0.13333333333    0.16666666667    0.29309767430
C   0.20000000000    0.10000000000    0.29309767430
 C  0.23333333333    0.16666666667    0.29309767430
C   0.30000000000    0.10000000000    0.29309767430
 C  0.33333333333    0.16666666667    0.29309767430
C   0.40000000000    0.10000000000    0.29309767430
 C  0.43333333333    0.16666666667    0.29309767430
C   0.50000000000    0.10000000000    0.29309767430
 C  0.53333333333    0.16666666667    0.29309767430
C   0.60000000000    0.10000000000    0.29309767430
 C  0.63333333333    0.16666666667    0.29309767430
C   0.70000000000    0.10000000000    0.29309767430
 C  0.73333333333    0.16666666667    0.29309767430
C   0.80000000000    0.10000000000    0.29309767430
 C  0.83333333333    0.16666666667    0.29309767430
C   0.90000000000    0.10000000000    0.29309767430
 C  0.93333333333    0.16666666667    0.29309767430
C   0.00000000000    0.20000000000    0.29309767430
 C  0.03333333333    0.26666666667    0.29309767430
C   0.10000000000    0.20000000000    0.29309767430
 C  0.13333333333    0.26666666667    0.29309767430
C   0.20000000000    0.20000000000    0.29309767430
 C  0.23333333333    0.26666666667    0.29309767430
C   0.30000000000    0.20000000000    0.29309767430
 C  0.33333333333    0.26666666667    0.29309767430
C   0.40000000000    0.20000000000    0.29309767430
 C  0.43333333333    0.26666666667    0.29309767430
C   0.50000000000    0.20000000000    0.29309767430
 C  0.53333333333    0.26666666667    0.29309767430
C   0.60000000000    0.20000000000    0.29309767430
 C  0.63333333333    0.26666666667    0.29309767430
C   0.70000000000    0.20000000000    0.29309767430
 C  0.73333333333    0.26666666667    0.29309767430
C   0.80000000000    0.20000000000    0.29309767430
 C  0.83333333333    0.26666666667    0.29309767430
C   0.90000000000    0.20000000000    0.29309767430
 C  0.93333333333    0.26666666667    0.29309767430
C   0.00000000000    0.30000000000    0.29309767430
 C  0.03333333333    0.36666666667    0.29309767430
C   0.10000000000    0.30000000000    0.29309767430
 C  0.13333333333    0.36666666667    0.29309767430
C   0.20000000000    0.30000000000    0.29309767430
 C  0.23333333333    0.36666666667    0.29309767430
C   0.30000000000    0.30000000000    0.29309767430
 C  0.33333333333    0.36666666667    0.29309767430
C   0.40000000000    0.30000000000    0.29309767430
 C  0.43333333333    0.36666666667    0.29309767430
C   0.50000000000    0.30000000000    0.29309767430
 C  0.53333333333    0.36666666667    0.29309767430
C   0.60000000000    0.30000000000    0.29309767430
 C  0.63333333333    0.36666666667    0.29309767430
C   0.70000000000    0.30000000000    0.29309767430
 C  0.73333333333    0.36666666667    0.29309767430
C   0.80000000000    0.30000000000    0.29309767430
 C  0.83333333333    0.36666666667    0.29309767430
C   0.90000000000    0.30000000000    0.29309767430
 C  0.93333333333    0.36666666667    0.29309767430
C   0.00000000000    0.40000000000    0.29309767430
 C  0.03333333333    0.46666666667    0.29309767430
C   0.10000000000    0.40000000000    0.29309767430
 C  0.13333333333    0.46666666667    0.29309767430
C   0.20000000000    0.40000000000    0.29309767430
 C  0.23333333333    0.46666666667    0.29309767430
C   0.30000000000    0.40000000000    0.29309767430
 C  0.33333333333    0.46666666667    0.29309767430
C   0.40000000000    0.40000000000    0.29309767430
 C  0.43333333333    0.46666666667    0.29309767430
C   0.50000000000    0.40000000000    0.29309767430
 C  0.53333333333    0.46666666667    0.29309767430
C   0.60000000000    0.40000000000    0.29309767430
 C  0.63333333333    0.46666666667    0.29309767430
C   0.70000000000    0.40000000000    0.29309767430
 C  0.73333333333    0.46666666667    0.29309767430
C   0.80000000000    0.40000000000    0.29309767430
 C  0.83333333333    0.46666666667    0.29309767430
C   0.90000000000    0.40000000000    0.29309767430
 C  0.93333333333    0.46666666667    0.29309767430
C   0.00000000000    0.50000000000    0.29309767430
 C  0.03333333333    0.56666666667    0.29309767430
C   0.10000000000    0.50000000000    0.29309767430
 C  0.13333333333    0.56666666667    0.29309767430
C   0.20000000000    0.50000000000    0.29309767430
 C  0.23333333333    0.56666666667    0.29309767430
C   0.30000000000    0.50000000000    0.29309767430
 C  0.33333333333    0.56666666667    0.29309767430
C   0.40000000000    0.50000000000    0.29309767430
 C  0.43333333333    0.56666666667    0.29309767430
C   0.50000000000    0.50000000000    0.29309767430
 C  0.53333333333    0.56666666667    0.29309767430
C   0.60000000000    0.50000000000    0.29309767430
 C  0.63333333333    0.56666666667    0.29309767430
C   0.70000000000    0.50000000000    0.29309767430
 C  0.73333333333    0.56666666667    0.29309767430
C   0.80000000000    0.50000000000    0.29309767430
 C  0.83333333333    0.56666666667    0.29309767430
C   0.90000000000    0.50000000000    0.29309767430
 C  0.93333333333    0.56666666667    0.29309767430
C   0.00000000000    0.60000000000    0.29309767430
 C  0.03333333333    0.66666666667    0.29309767430
C   0.10000000000    0.60000000000    0.29309767430
 C  0.13333333333    0.66666666667    0.29309767430
C   0.20000000000    0.60000000000    0.29309767430
 C  0.23333333333    0.66666666667    0.29309767430
C   0.30000000000    0.60000000000    0.29309767430
 C  0.33333333333    0.66666666667    0.29309767430
C   0.40000000000    0.60000000000    0.29309767430
 C  0.43333333333    0.66666666667    0.29309767430
C   0.50000000000    0.60000000000    0.29309767430
 C  0.53333333333    0.66666666667    0.29309767430
C   0.60000000000    0.60000000000    0.29309767430
 C  0.63333333333    0.66666666667    0.29309767430
C   0.70000000000    0.60000000000    0.29309767430
 C  0.73333333333    0.66666666667    0.29309767430
C   0.80000000000    0.60000000000    0.29309767430
 C  0.83333333333    0.66666666667    0.29309767430
C   0.90000000000    0.60000000000    0.29309767430
 C  0.93333333333    0.66666666667    0.29309767430
C   0.00000000000    0.70000000000    0.29309767430
 C  0.03333333333    0.76666666667    0.29309767430
C   0.10000000000    0.70000000000    0.29309767430
 C  0.13333333333    0.76666666667    0.29309767430
C   0.20000000000    0.70000000000    0.29309767430
 C  0.23333333333    0.76666666667    0.29309767430
C   0.30000000000    0.70000000000    0.29309767430
 C  0.33333333333    0.76666666667    0.29309767430
C   0.40000000000    0.70000000000    0.29309767430
 C  0.43333333333    0.76666666667    0.29309767430
C   0.50000000000    0.70000000000    0.29309767430
 C  0.53333333333    0.76666666667    0.29309767430
C   0.60000000000    0.70000000000    0.29309767430
 C  0.63333333333    0.76666666667    0.29309767430
C   0.70000000000    0.70000000000    0.29309767430
 C  0.73333333333    0.76666666667    0.29309767430
C   0.80000000000    0.70000000000    0.29309767430
 C  0.83333333333    0.76666666667    0.29309767430
C   0.90000000000    0.70000000000    0.29309767430
 C  0.93333333333    0.76666666667    0.29309767430
C   0.00000000000    0.80000000000    0.29309767430
 C  0.03333333333    0.86666666667    0.29309767430
C   0.10000000000    0.80000000000    0.29309767430
 C  0.13333333333    0.86666666667    0.29309767430
C   0.20000000000    0.80000000000    0.29309767430
 C  0.23333333333    0.86666666667    0.29309767430
C   0.30000000000    0.80000000000    0.29309767430
 C  0.33333333333    0.86666666667    0.29309767430
C   0.40000000000    0.80000000000    0.29309767430
 C  0.43333333333    0.86666666667    0.29309767430
C   0.50000000000    0.80000000000    0.29309767430
 C  0.53333333333    0.86666666667    0.29309767430
C   0.60000000000    0.80000000000    0.29309767430
 C  0.63333333333    0.86666666667    0.29309767430
C   0.70000000000    0.80000000000    0.29309767430
 C  0.73333333333    0.86666666667    0.29309767430
C   0.80000000000    0.80000000000    0.29309767430
 C  0.83333333333    0.86666666667    0.29309767430
C   0.90000000000    0.80000000000    0.29309767430
 C  0.93333333333    0.86666666667    0.29309767430
C   0.00000000000    0.90000000000    0.29309767430
 C  0.03333333333    0.96666666667    0.29309767430
C   0.10000000000    0.90000000000    0.29309767430
 C  0.13333333333    0.96666666667    0.29309767430
C   0.20000000000    0.90000000000    0.29309767430
 C  0.23333333333    0.96666666667    0.29309767430
C   0.30000000000    0.90000000000    0.29309767430
 C  0.33333333333    0.96666666667    0.29309767430
C   0.40000000000    0.90000000000    0.29309767430
 C  0.43333333333    0.96666666667    0.29309767430
C   0.50000000000    0.90000000000    0.29309767430
 C  0.53333333333    0.96666666667    0.29309767430
C   0.60000000000    0.90000000000    0.29309767430
 C  0.63333333333    0.96666666667    0.29309767430
C   0.70000000000    0.90000000000    0.29309767430
 C  0.73333333333    0.96666666667    0.29309767430
C   0.80000000000    0.90000000000    0.29309767430
 C  0.83333333333    0.96666666667    0.29309767430
C   0.90000000000    0.90000000000    0.29309767430
 C  0.93333333333    0.96666666667    0.29309767430
 Ir  0.00000000000   0.00000000000   0.00000000000
 Ir  0.00000000000   0.11111111111   0.00000000000
 Ir  0.00000000000   0.22222222222   0.00000000000
 Ir  0.00000000000   0.33333333333   0.00000000000
 Ir  0.00000000000   0.44444444444   0.00000000000
 Ir  0.00000000000   0.55555555556   0.00000000000
 Ir  0.00000000000   0.66666666667   0.00000000000
 Ir  0.00000000000   0.77777777778   0.00000000000
 Ir  0.00000000000   0.88888888889   0.00000000000
 Ir  0.11111111111   0.00000000000   0.00000000000
 Ir  0.11111111111   0.11111111111   0.00000000000
 Ir  0.11111111111   0.22222222222   0.00000000000
 Ir  0.11111111111   0.33333333333   0.00000000000
 Ir  0.11111111111   0.44444444444   0.00000000000
 Ir  0.11111111111   0.55555555556   0.00000000000
 Ir  0.11111111111   0.66666666667   0.00000000000
 Ir  0.11111111111   0.77777777778   0.00000000000
 Ir  0.11111111111   0.88888888889   0.00000000000
 Ir  0.22222222222   0.00000000000   0.00000000000
 Ir  0.22222222222   0.11111111111   0.00000000000
 Ir  0.22222222222   0.22222222222   0.00000000000
 Ir  0.22222222222   0.33333333333   0.00000000000
 Ir  0.22222222222   0.44444444444   0.00000000000
 Ir  0.22222222222   0.55555555556   0.00000000000
 Ir  0.22222222222   0.66666666667   0.00000000000
 Ir  0.22222222222   0.77777777778   0.00000000000
 Ir  0.22222222222   0.88888888889   0.00000000000
 Ir  0.33333333333   0.00000000000   0.00000000000
 Ir  0.33333333333   0.11111111111   0.00000000000
 Ir  0.33333333333   0.22222222222   0.00000000000
 Ir  0.33333333333   0.33333333333   0.00000000000
 Ir  0.33333333333   0.44444444444   0.00000000000
 Ir  0.33333333333   0.55555555556   0.00000000000
 Ir  0.33333333333   0.66666666667   0.00000000000
 Ir  0.33333333333   0.77777777778   0.00000000000
 Ir  0.33333333333   0.88888888889   0.00000000000
 Ir  0.44444444444   0.00000000000   0.00000000000
 Ir  0.44444444444   0.11111111111   0.00000000000
 Ir  0.44444444444   0.22222222222   0.00000000000
 Ir  0.44444444444   0.33333333333   0.00000000000
 Ir  0.44444444444   0.44444444444   0.00000000000
 Ir  0.44444444444   0.55555555556   0.00000000000
 Ir  0.44444444444   0.66666666667   0.00000000000
 Ir  0.44444444444   0.77777777778   0.00000000000
 Ir  0.44444444444   0.88888888889   0.00000000000
 Ir  0.55555555556   0.00000000000   0.00000000000
 Ir  0.55555555556   0.11111111111   0.00000000000
 Ir  0.55555555556   0.22222222222   0.00000000000
 Ir  0.55555555556   0.33333333333   0.00000000000
 Ir  0.55555555556   0.44444444444   0.00000000000
 Ir  0.55555555556   0.55555555556   0.00000000000
 Ir  0.55555555556   0.66666666667   0.00000000000
 Ir  0.55555555556   0.77777777778   0.00000000000
 Ir  0.55555555556   0.88888888889   0.00000000000
 Ir  0.66666666667   0.00000000000   0.00000000000
 Ir  0.66666666667   0.11111111111   0.00000000000
 Ir  0.66666666667   0.22222222222   0.00000000000
 Ir  0.66666666667   0.33333333333   0.00000000000
 Ir  0.66666666667   0.44444444444   0.00000000000
 Ir  0.66666666667   0.55555555556   0.00000000000
 Ir  0.66666666667   0.66666666667   0.00000000000
 Ir  0.66666666667   0.77777777778   0.00000000000
 Ir  0.66666666667   0.88888888889   0.00000000000
 Ir  0.77777777778   0.00000000000   0.00000000000
 Ir  0.77777777778   0.11111111111   0.00000000000
 Ir  0.77777777778   0.22222222222   0.00000000000
 Ir  0.77777777778   0.33333333333   0.00000000000
 Ir  0.77777777778   0.44444444444   0.00000000000
 Ir  0.77777777778   0.55555555556   0.00000000000
 Ir  0.77777777778   0.66666666667   0.00000000000
 Ir  0.77777777778   0.77777777778   0.00000000000
 Ir  0.77777777778   0.88888888889   0.00000000000
 Ir  0.88888888889   0.00000000000   0.00000000000
 Ir  0.88888888889   0.11111111111   0.00000000000
 Ir  0.88888888889   0.22222222222   0.00000000000
 Ir  0.88888888889   0.33333333333   0.00000000000
 Ir  0.88888888889   0.44444444444   0.00000000000
 Ir  0.88888888889   0.55555555556   0.00000000000
 Ir  0.88888888889   0.66666666667   0.00000000000
 Ir  0.88888888889   0.77777777778   0.00000000000
 Ir  0.88888888889   0.88888888889   0.00000000000
Ir   0.03703703704  -0.03703703704   0.07854140049
Ir   0.03703703704   0.07407407407   0.07854140049
Ir   0.03703703704   0.18518518519   0.07854140049
Ir   0.03703703704   0.29629629630   0.07854140049
Ir   0.03703703704   0.40740740741   0.07854140049
Ir   0.03703703704   0.51851851852   0.07854140049
Ir   0.03703703704   0.62962962963   0.07854140049
Ir   0.03703703704   0.74074074074   0.07854140049
Ir   0.03703703704   0.85185185185   0.07854140049
Ir   0.14814814815  -0.03703703704   0.07854140049
Ir   0.14814814815   0.07407407407   0.07854140049
Ir   0.14814814815   0.18518518519   0.07854140049
Ir   0.14814814815   0.29629629630   0.07854140049
Ir   0.14814814815   0.40740740741   0.07854140049
Ir   0.14814814815   0.51851851852   0.07854140049
Ir   0.14814814815   0.62962962963   0.07854140049
Ir   0.14814814815   0.74074074074   0.07854140049
Ir   0.14814814815   0.85185185185   0.07854140049
Ir   0.25925925926  -0.03703703704   0.07854140049
Ir   0.25925925926   0.07407407407   0.07854140049
Ir   0.25925925926   0.18518518519   0.07854140049
Ir   0.25925925926   0.29629629630   0.07854140049
Ir   0.25925925926   0.40740740741   0.07854140049
Ir   0.25925925926   0.51851851852   0.07854140049
Ir   0.25925925926   0.62962962963   0.07854140049
Ir   0.25925925926   0.74074074074   0.07854140049
Ir   0.25925925926   0.85185185185   0.07854140049
Ir   0.37037037037  -0.03703703704   0.07854140049
Ir   0.37037037037   0.07407407407   0.07854140049
Ir   0.37037037037   0.18518518519   0.07854140049
Ir   0.37037037037   0.29629629630   0.07854140049
Ir   0.37037037037   0.40740740741   0.07854140049
Ir   0.37037037037   0.51851851852   0.07854140049
Ir   0.37037037037   0.62962962963   0.07854140049
Ir   0.37037037037   0.74074074074   0.07854140049
Ir   0.37037037037   0.85185185185   0.07854140049
Ir   0.48148148148  -0.03703703704   0.07854140049
Ir   0.48148148148   0.07407407407   0.07854140049
Ir   0.48148148148   0.18518518519   0.07854140049
Ir   0.48148148148   0.29629629630   0.07854140049
Ir   0.48148148148   0.40740740741   0.07854140049
Ir   0.48148148148   0.51851851852   0.07854140049
Ir   0.48148148148   0.62962962963   0.07854140049
Ir   0.48148148148   0.74074074074   0.07854140049
Ir   0.48148148148   0.85185185185   0.07854140049
Ir   0.59259259259  -0.03703703704   0.07854140049
Ir   0.59259259259   0.07407407407   0.07854140049
Ir   0.59259259259   0.18518518519   0.07854140049
Ir   0.59259259259   0.29629629630   0.07854140049
Ir   0.59259259259   0.40740740741   0.07854140049
Ir   0.59259259259   0.51851851852   0.07854140049
Ir   0.59259259259   0.62962962963   0.07854140049
Ir   0.59259259259   0.74074074074   0.07854140049
Ir   0.59259259259   0.85185185185   0.07854140049
Ir   0.70370370370  -0.03703703704   0.07854140049
Ir   0.70370370370   0.07407407407   0.07854140049
Ir   0.70370370370   0.18518518519   0.07854140049
Ir   0.70370370370   0.29629629630   0.07854140049
Ir   0.70370370370   0.40740740741   0.07854140049
Ir   0.70370370370   0.51851851852   0.07854140049
Ir   0.70370370370   0.62962962963   0.07854140049
Ir   0.70370370370   0.74074074074   0.07854140049
Ir   0.70370370370   0.85185185185   0.07854140049
Ir   0.81481481481  -0.03703703704   0.07854140049
Ir   0.81481481481   0.07407407407   0.07854140049
Ir   0.81481481481   0.18518518519   0.07854140049
Ir   0.81481481481   0.29629629630   0.07854140049
Ir   0.81481481481   0.40740740741   0.07854140049
Ir   0.81481481481   0.51851851852   0.07854140049
Ir   0.81481481481   0.62962962963   0.07854140049
Ir   0.81481481481   0.74074074074   0.07854140049
Ir   0.81481481481   0.85185185185   0.07854140049
Ir   0.92592592593  -0.03703703704   0.07854140049
Ir   0.92592592593   0.07407407407   0.07854140049
Ir   0.92592592593   0.18518518519   0.07854140049
Ir   0.92592592593   0.29629629630   0.07854140049
Ir   0.92592592593   0.40740740741   0.07854140049
Ir   0.92592592593   0.51851851852   0.07854140049
Ir   0.92592592593   0.62962962963   0.07854140049
Ir   0.92592592593   0.74074074074   0.07854140049
Ir   0.92592592593   0.85185185185   0.07854140049
 Ir  0.00000000000  -0.11111111111   0.15570700293   0  0  0
 Ir  0.00000000000   0.00000000000   0.15570700293   0  0  0
 Ir  0.00000000000   0.11111111111   0.15570700293   0  0  0
 Ir  0.00000000000   0.22222222222   0.15570700293   0  0  0
 Ir  0.00000000000   0.33333333333   0.15570700293   0  0  0
 Ir  0.00000000000   0.44444444444   0.15570700293   0  0  0
 Ir  0.00000000000   0.55555555556   0.15570700293   0  0  0
 Ir  0.00000000000   0.66666666667   0.15570700293   0  0  0
 Ir  0.00000000000   0.77777777778   0.15570700293   0  0  0
 Ir  0.11111111111  -0.11111111111   0.15570700293   0  0  0
 Ir  0.11111111111   0.00000000000   0.15570700293   0  0  0
 Ir  0.11111111111   0.11111111111   0.15570700293   0  0  0
 Ir  0.11111111111   0.22222222222   0.15570700293   0  0  0
 Ir  0.11111111111   0.33333333333   0.15570700293   0  0  0
 Ir  0.11111111111   0.44444444444   0.15570700293   0  0  0
 Ir  0.11111111111   0.55555555556   0.15570700293   0  0  0
 Ir  0.11111111111   0.66666666667   0.15570700293   0  0  0
 Ir  0.11111111111   0.77777777778   0.15570700293   0  0  0
 Ir  0.22222222222  -0.11111111111   0.15570700293   0  0  0
 Ir  0.22222222222   0.00000000000   0.15570700293   0  0  0
 Ir  0.22222222222   0.11111111111   0.15570700293   0  0  0
 Ir  0.22222222222   0.22222222222   0.15570700293   0  0  0
 Ir  0.22222222222   0.33333333333   0.15570700293   0  0  0
 Ir  0.22222222222   0.44444444444   0.15570700293   0  0  0
 Ir  0.22222222222   0.55555555556   0.15570700293   0  0  0
 Ir  0.22222222222   0.66666666667   0.15570700293   0  0  0
 Ir  0.22222222222   0.77777777778   0.15570700293   0  0  0
 Ir  0.33333333333  -0.11111111111   0.15570700293   0  0  0
 Ir  0.33333333333   0.00000000000   0.15570700293   0  0  0
 Ir  0.33333333333   0.11111111111   0.15570700293   0  0  0
 Ir  0.33333333333   0.22222222222   0.15570700293   0  0  0
 Ir  0.33333333333   0.33333333333   0.15570700293   0  0  0
 Ir  0.33333333333   0.44444444444   0.15570700293   0  0  0
 Ir  0.33333333333   0.55555555556   0.15570700293   0  0  0
 Ir  0.33333333333   0.66666666667   0.15570700293   0  0  0
 Ir  0.33333333333   0.77777777778   0.15570700293   0  0  0
 Ir  0.44444444444  -0.11111111111   0.15570700293   0  0  0
 Ir  0.44444444444   0.00000000000   0.15570700293   0  0  0
 Ir  0.44444444444   0.11111111111   0.15570700293   0  0  0
 Ir  0.44444444444   0.22222222222   0.15570700293   0  0  0
 Ir  0.44444444444   0.33333333333   0.15570700293   0  0  0
 Ir  0.44444444444   0.44444444444   0.15570700293   0  0  0
 Ir  0.44444444444   0.55555555556   0.15570700293   0  0  0
 Ir  0.44444444444   0.66666666667   0.15570700293   0  0  0
 Ir  0.44444444444   0.77777777778   0.15570700293   0  0  0
 Ir  0.55555555556  -0.11111111111   0.15570700293   0  0  0
 Ir  0.55555555556   0.00000000000   0.15570700293   0  0  0
 Ir  0.55555555556   0.11111111111   0.15570700293   0  0  0
 Ir  0.55555555556   0.22222222222   0.15570700293   0  0  0
 Ir  0.55555555556   0.33333333333   0.15570700293   0  0  0
 Ir  0.55555555556   0.44444444444   0.15570700293   0  0  0
 Ir  0.55555555556   0.55555555556   0.15570700293   0  0  0
 Ir  0.55555555556   0.66666666667   0.15570700293   0  0  0
 Ir  0.55555555556   0.77777777778   0.15570700293   0  0  0
 Ir  0.66666666667  -0.11111111111   0.15570700293   0  0  0
 Ir  0.66666666667   0.00000000000   0.15570700293   0  0  0
 Ir  0.66666666667   0.11111111111   0.15570700293   0  0  0
 Ir  0.66666666667   0.22222222222   0.15570700293   0  0  0
 Ir  0.66666666667   0.33333333333   0.15570700293   0  0  0
 Ir  0.66666666667   0.44444444444   0.15570700293   0  0  0
 Ir  0.66666666667   0.55555555556   0.15570700293   0  0  0
 Ir  0.66666666667   0.66666666667   0.15570700293   0  0  0
 Ir  0.66666666667   0.77777777778   0.15570700293   0  0  0
 Ir  0.77777777778  -0.11111111111   0.15570700293   0  0  0
 Ir  0.77777777778   0.00000000000   0.15570700293   0  0  0
 Ir  0.77777777778   0.11111111111   0.15570700293   0  0  0
 Ir  0.77777777778   0.22222222222   0.15570700293   0  0  0
 Ir  0.77777777778   0.33333333333   0.15570700293   0  0  0
 Ir  0.77777777778   0.44444444444   0.15570700293   0  0  0
 Ir  0.77777777778   0.55555555556   0.15570700293   0  0  0
 Ir  0.77777777778   0.66666666667   0.15570700293   0  0  0
 Ir  0.77777777778   0.77777777778   0.15570700293   0  0  0
 Ir  0.88888888889  -0.11111111111   0.15570700293   0  0  0
 Ir  0.88888888889   0.00000000000   0.15570700293   0  0  0
 Ir  0.88888888889   0.11111111111   0.15570700293   0  0  0
 Ir  0.88888888889   0.22222222222   0.15570700293   0  0  0
 Ir  0.88888888889   0.33333333333   0.15570700293   0  0  0
 Ir  0.88888888889   0.44444444444   0.15570700293   0  0  0
 Ir  0.88888888889   0.55555555556   0.15570700293   0  0  0
 Ir  0.88888888889   0.66666666667   0.15570700293   0  0  0
 Ir  0.88888888889   0.77777777778   0.15570700293   0  0  0
