&control
    calculation='scf',
    restart_mode='from_scratch',
    prefix='CuOSC',
    forc_conv_thr = 1.0D-3,
    pseudo_dir = './',
    outdir='./out',
    disk_io='low',
    wf_collect=.true.
 /
 &system
    ibrav = 0, nat=64, ntyp=2,
    ecutwfc = 70,
    ecutrho = 700,
    smearing='mp',
    occupations='smearing',
    degauss=0.01,
    nspin=1,
 /
 &electrons
    mixing_beta = 0.5,
    conv_thr =  1.0d-10,
    startingpot='atomic',
    startingwfc='atomic',
    electron_maxstep=30
 /

 &ions
 /

 &cell
    cell_dynamics = bfgs,
    press = 0
 /

ATOMIC_SPECIES
  O  1.0 O.pbe-n-kjpaw_psl.0.1.UPF
  Cu 1.0 Cu.pbe-dn-kjpaw_psl.0.2.UPF

CELL_PARAMETERS angstrom
        9.3660001755         0.0000000000         0.0000000000
        0.0000000000         6.8406000137         0.0000000000
       -1.7280819494         0.0000000000        10.1022633844

ATOMIC_POSITIONS crystal
   O  0.000000000         0.208500000         0.125000000
   O  0.000000000         0.791500000         0.875000000
   O  0.000000000         0.791500000         0.375000000
   O  0.250000000         0.458500000         0.125000000
   O  0.250000000         0.041500000         0.875000000
   O  0.250000000         0.041500000         0.375000000
   O  0.000000000         0.208500000         0.625000000
   O  0.250000000         0.458500000         0.625000000
   O  0.000000000         0.708500000         0.125000000
   O  0.000000000         0.291500000         0.875000000
   O  0.000000000         0.291500000         0.375000000
   O  0.250000000         0.958500000         0.125000000
   O  0.250000000         0.541500000         0.875000000
   O  0.250000000         0.541500000         0.375000000
   O  0.000000000         0.708500000         0.625000000
   O  0.250000000         0.958500000         0.625000000
   O  0.500000000         0.208500000         0.125000000
   O  0.500000000         0.791500000         0.875000000
   O  0.500000000         0.791500000         0.375000000
   O  0.750000000         0.458500000         0.125000000
   O  0.750000000         0.041500000         0.875000000
   O  0.750000000         0.041500000         0.375000000
   O  0.500000000         0.208500000         0.625000000
   O  0.750000000         0.458500000         0.625000000
   O  0.500000000         0.708500000         0.125000000
   O  0.500000000         0.291500000         0.875000000
   O  0.500000000         0.291500000         0.375000000
   O  0.750000000         0.958500000         0.125000000
   O  0.750000000         0.541500000         0.875000000
   O  0.750000000         0.541500000         0.375000000
   O  0.500000000         0.708500000         0.625000000
   O  0.750000000         0.958500000         0.625000000
   Cu  0.125000000         0.125000000         0.000000000
   Cu  0.875000000         0.875000000         0.000000000
   Cu  0.875000000         0.125000000         0.250000000
   Cu  0.125000000         0.875000000         0.250000000
   Cu  0.375000000         0.375000000         0.000000000
   Cu  0.125000000         0.375000000         0.250000000
   Cu  0.375000000         0.125000000         0.250000000
   Cu  0.125000000         0.125000000         0.500000000
   Cu  0.875000000         0.875000000         0.500000000
   Cu  0.875000000         0.125000000         0.750000000
   Cu  0.125000000         0.875000000         0.750000000
   Cu  0.375000000         0.375000000         0.500000000
   Cu  0.125000000         0.375000000         0.750000000
   Cu  0.375000000         0.125000000         0.750000000
   Cu  0.125000000         0.625000000         0.000000000
   Cu  0.875000000         0.375000000         0.000000000
   Cu  0.875000000         0.625000000         0.250000000
   Cu  0.375000000         0.875000000         0.000000000
   Cu  0.375000000         0.625000000         0.250000000
   Cu  0.125000000         0.625000000         0.500000000
   Cu  0.875000000         0.375000000         0.500000000
   Cu  0.875000000         0.625000000         0.750000000
   Cu  0.375000000         0.875000000         0.500000000
   Cu  0.375000000         0.625000000         0.750000000
   Cu  0.625000000         0.125000000         0.000000000
   Cu  0.625000000         0.875000000         0.250000000
   Cu  0.625000000         0.375000000         0.250000000
   Cu  0.625000000         0.125000000         0.500000000
   Cu  0.625000000         0.875000000         0.750000000
   Cu  0.625000000         0.375000000         0.750000000
   Cu  0.625000000         0.625000000         0.000000000
   Cu  0.625000000         0.625000000         0.500000000

K_POINTS automatic
2 2 2 0 0 0
