&CONTROL
calculation='scf'
prefix='SiO2_OR_36_us'
restart_mode='from_scratch'
title="'srtio_bulk'"
tprnfor=.true.
forc_conv_thr=3.d-5
PSEUDO_DIR='./'
verbosity='high'
nstep=350
/
&SYSTEM
IBRAV=8
celldm(1) = 18.572235754766361
celldm(2)=  0.86602540
celldm(3) = 0.54995930 
NAT=36
ntyp=2
ECUTWFC=40
ecutrho=250
occupations='fixed'
/
&ELECTRONS
startingpot='atomic'
conv_thr=1e-10
/
&ions
/
&cell
/
ATOMIC_SPECIES
'Si'    47.867     'Si.pbesol-n-rrkjus_psl.0.1.UPF'
'O'      15.9994     'O.pbesol-n-rrkjus_psl.0.1.UPF' 
ATOMIC_POSITIONS alat
Si      0.235573307   0.000000000   0.000000000
Si      0.735573191   0.000000000   0.000000000
Si      0.483738698   0.433012700   0.000000000
Si      0.983738842   0.433012700   0.000000000
O       0.139931863   0.746819086   0.059277001
O       0.639931907   0.746819156   0.059276964
O       0.389956525   0.315534967   0.066482696
O       0.889956492   0.315534936   0.066482720
O       0.329520032   0.059591002   0.121208426
O       0.829520068   0.059591027   0.121208460
O       0.078099586   0.495117908   0.119598054
O       0.578099671   0.495118016   0.119598146
Si      0.383023057   0.201279195   0.184917379
Si      0.883023134   0.201279187   0.184917447
Si      0.132511005   0.636855939   0.181401616
Si      0.632510781   0.636855875   0.181401648
O       0.031067477   0.175725548   0.250837208
O       0.531067622   0.175725586   0.250837310
O       0.281234324   0.613980850   0.246304158
O       0.781234441   0.613980839   0.246304223
O       0.031067477   0.690299862   0.299122092
O       0.531067622   0.690299824   0.299121990
O       0.281234324   0.252044550   0.303655142
O       0.781234441   0.252044561   0.303655077
Si      0.383023057   0.664746205   0.365041921
Si      0.883023134   0.664746213   0.365041853
Si      0.132511005   0.229169461   0.368557684
Si      0.632510781   0.229169525   0.368557652
O       0.329520032   0.806434398   0.428750874
O       0.829520068   0.806434373   0.428750840
O       0.078099586   0.370907492   0.430361246
O       0.578099671   0.370907384   0.430361154
O       0.139931863   0.119206324   0.490682299
O       0.639931907   0.119206254   0.490682336
O       0.389956525   0.550490433   0.483476604
O       0.889956492   0.550490464   0.483476580
K_POINTS automatic
2 4 4 1 1 1
