&CONTROL
calculation='scf'
prefix='SiO2_OR_36_paw'
restart_mode='from_scratch'
title="'srtio_bulk'"
tprnfor=.true.
forc_conv_thr=3.d-5
PSEUDO_DIR='./'
verbosity='high'
nstep=350
/
&SYSTEM
IBRAV=8
celldm(1) = 18.572235754766361
celldm(2)=  0.86602540
celldm(3) = 0.54995930 
NAT=36
ntyp=2
ECUTWFC=40
ecutrho=250
occupations='fixed'
/
&ELECTRONS
startingpot='atomic'
conv_thr=1e-10
/
&ions
/
&cell
/
ATOMIC_SPECIES
'Si'    47.867     'Si.pbesol-n-kjpaw_psl.0.1.UPF'
'O'      15.9994     'O.pbesol-n-kjpaw_psl.0.1.UPF' 
ATOMIC_POSITIONS alat
Si    0.233755371   0.000000000   0.000000000   
Si    0.733755376   0.000000000   0.000000000   
Si    0.483753717   0.433012700   0.000000000   
Si    0.983753757   0.433012700   0.000000000   
O     0.137851190   0.748447515   0.063368438   
O     0.637851174   0.748447436   0.063368485   
O     0.387844525   0.315435502   0.063356477   
O     0.887844507   0.315435497   0.063356465   
O     0.329254654   0.060592832   0.119955732   
O     0.829254716   0.060592904   0.119955804   
O     0.079256933   0.493595442   0.119956519   
O     0.579256955   0.493595448   0.119956532   
Si    0.383118930   0.202443930   0.183318244   
Si    0.883118922   0.202443847   0.183318208   
Si    0.133121293   0.635441433   0.183321217   
Si    0.633121263   0.635441494   0.183321170   
O     0.032898540   0.178179225   0.246680876   
O     0.532898554   0.178179212   0.246680914   
O     0.282899364   0.611173256   0.246683762   
O     0.782899373   0.611173251   0.246683759   
O     0.032898540   0.687846185   0.303278424   
O     0.532898554   0.687846198   0.303278386   
O     0.282899364   0.254852144   0.303275538   
O     0.782899373   0.254852149   0.303275541   
Si    0.383118930   0.663581470   0.366641056   
Si    0.883118922   0.663581553   0.366641092   
Si    0.133121293   0.230583967   0.366638083   
Si    0.633121263   0.230583906   0.366638130   
O     0.329254654   0.805432568   0.430003568   
O     0.829254716   0.805432496   0.430003496   
O     0.079256933   0.372429958   0.430002781   
O     0.579256955   0.372429952   0.430002768   
O     0.137851190   0.117577895   0.486590862   
O     0.637851174   0.117577974   0.486590815   
O     0.387844525   0.550589898   0.486602823   
O     0.887844507   0.550589903   0.486602835   
K_POINTS automatic
2 4 4 1 1 1
