&CONTROL
calculation='scf'
prefix='SiO2_OR_36_nc'
restart_mode='from_scratch'
title="'srtio_bulk'"
tprnfor=.true.
forc_conv_thr=3.d-5
PSEUDO_DIR='./'
verbosity='high'
nstep=350
/
&SYSTEM
IBRAV=8
celldm(1) = 18.572235754766361
celldm(2)=  0.86602540
celldm(3) = 0.54995930 
NAT=36
ntyp=2
ECUTWFC=80
occupations='fixed'
/
&ELECTRONS
startingpot='atomic'
conv_thr=1e-10
/
&ions
/
&cell
/
ATOMIC_SPECIES
'Si'    47.867     'Si.pbe-rrkj.UPF'
'O'      15.9994     'O.pbe-mt.UPF' 
ATOMIC_POSITIONS alat
Si      0.231112137   0.000000000   0.000000000  
Si      0.731112134   0.000000000   0.000000000  
Si      0.481112129   0.433012700   0.000000000  
Si      0.981112104   0.433012700   0.000000000  
O       0.133844965   0.744664964   0.059073183  
O       0.633844962   0.744664963   0.059073184  
O       0.383844973   0.311652309   0.059073153  
O       0.883844984   0.311652317   0.059073146  
O       0.327987556   0.055269785   0.124234341  
O       0.827987560   0.055269791   0.124234346  
O       0.077987543   0.488282453   0.124234324  
O       0.577987530   0.488282443   0.124234312  
Si      0.384440707   0.200167645   0.183336859  
Si      0.884440681   0.200167642   0.183336857  
Si      0.134440704   0.633180411   0.183336854  
Si      0.634440716   0.633180416   0.183336847  
O       0.038170734   0.176471768   0.242412008  
O       0.538170709   0.176471767   0.242411992  
O       0.288170712   0.609484444   0.242411987  
O       0.788170717   0.609484446   0.242411992  
O       0.038170734   0.689553642   0.307547292  
O       0.538170709   0.689553643   0.307547308  
O       0.288170712   0.256540956   0.307547313  
O       0.788170717   0.256540954   0.307547308  
Si      0.384440707   0.665857755   0.366622441  
Si      0.884440681   0.665857758   0.366622443  
Si      0.134440704   0.232844989   0.366622446  
Si      0.634440716   0.232844984   0.366622453  
O       0.327987556   0.810755615   0.425724959  
O       0.827987560   0.810755609   0.425724954  
O       0.077987543   0.377742947   0.425724976  
O       0.577987530   0.377742957   0.425724988  
O       0.133844965   0.121360446   0.490886117  
O       0.633844962   0.121360447   0.490886116  
O       0.383844973   0.554373091   0.490886147  
O       0.883844984   0.554373083   0.490886154  
K_POINTS automatic
2 4 4 1 1 1
