&CONTROL
calculation='scf'
prefix='SiO2_OR_144_nc'
restart_mode='from_scratch'
title="'srtio_bulk'"
tprnfor=.true.
forc_conv_thr=3.d-5
PSEUDO_DIR='./'
verbosity='high'
nstep=350
/
&SYSTEM
IBRAV=8
celldm(1) = 18.572235754766361
celldm(2)=  1.73205081
celldm(3) = 1.09991860 
NAT=144
ntyp=2
ECUTWFC=80
occupations='fixed'
/
&ELECTRONS
startingpot='atomic'
conv_thr=1e-10
/
&ions
/
&cell
/
ATOMIC_SPECIES
'Si'    47.867     'Si.pbe-rrkj.UPF'
'O'      15.9994     'O.pbe-mt.UPF' 
ATOMIC_POSITIONS alat
Si       0.231111034   0.000000000   0.000000000
Si       0.231110999   0.866025400   0.000000000
Si       0.731111000   0.000000000   0.000000000
Si       0.731110945   0.866025400   0.000000000
Si       0.481111001   0.433012545   0.000000003
Si       0.481111001   1.299038265  -0.000000003
Si       0.981111008   0.433012532   0.000000002
Si       0.981111008   1.299038278  -0.000000002
O        0.133845090   0.744664007   0.059074534
O        0.133845047   1.610689282   0.059074628
O        0.633845102   0.744664019   0.059074530
O        0.633845054   1.610689297   0.059074617
O        0.383845102   0.311651313   0.059074532
O        0.383845024   1.177676522   0.059074663
O        0.883845107   0.311651316   0.059074526
O        0.883845026   1.177676525   0.059074665
O        0.327987114   0.055270761   0.124234232
O        0.327987062   0.921296080   0.124234172
O        0.827987117   0.055270768   0.124234242
O        0.827987088   0.921296110   0.124234196
O        0.077987153   0.488283518   0.124234271
O        0.077987059   1.354308777   0.124234173
O        0.577987156   0.488283523   0.124234276
O        0.577987069   1.354308792   0.124234184
Si       0.384441606   0.200166433   0.183335658
Si       0.384441649   1.066192036   0.183335657
Si       0.884441608   0.200166425   0.183335668
Si       0.884441609   1.066192029   0.183335666
Si       0.134441619   0.633179064   0.183335673
Si       0.134441643   1.499204720   0.183335660
Si       0.634441571   0.633179070   0.183335668
Si       0.634441610   1.499204705   0.183335658
O        0.038170712   0.176470506   0.242414415
O        0.038170686   1.042495902   0.242414388
O        0.538170731   0.176470511   0.242414427
O        0.538170687   1.042495903   0.242414390
O        0.288170694   0.609483213   0.242414404
O        0.288170689   1.475508605   0.242414392
O        0.788170738   0.609483215   0.242414430
O        0.788170713   1.475508608   0.242414404
O        0.038170716   0.689554902   0.307544886
O        0.038170730   1.555580301   0.307544870
O        0.538170721   0.689554899   0.307544884
O        0.538170738   1.555580300   0.307544865
O        0.288170701   0.256542193   0.307544895
O        0.288170720   1.122567594   0.307544872
O        0.788170721   0.256542193   0.307544884
O        0.788170772   1.122567591   0.307544837
Si       0.384441636   0.665858788   0.366623683
Si       0.384441607   1.531884382   0.366623668
Si       0.884441606   0.665858796   0.366623676
Si       0.884441600   1.531884383   0.366623658
Si       0.134441639   0.232846103   0.366623654
Si       0.134441610   1.098871729   0.366623685
Si       0.634441608   0.232846113   0.366623653
Si       0.634441562   1.098871720   0.366623687
O        0.327987074   0.810754703   0.425725114
O        0.327987121   1.676780040   0.425725058
O        0.827987099   0.810754677   0.425725088
O        0.827987126   1.676780035   0.425725052
O        0.077987060   0.377742024   0.425725123
O        0.077987162   1.243767279   0.425725016
O        0.577987075   0.377742011   0.425725111
O        0.577987158   1.243767283   0.425725019
O        0.133845050   0.121361522   0.490884676
O        0.133845080   0.987386831   0.490884739
O        0.633845058   0.121361513   0.490884682
O        0.633845096   0.987386817   0.490884748
O        0.383845028   0.554374281   0.490884638
O        0.383845095   1.420399507   0.490884753
O        0.883845029   0.554374282   0.490884634
O        0.883845098   1.420399504   0.490884753
Si       0.231111019   0.000000000   0.549959300
Si       0.231111007   0.866025400   0.549959300
Si       0.731110999   0.000000000   0.549959300
Si       0.731110952   0.866025400   0.549959300
Si       0.481111001   0.433012562   0.549959296
Si       0.481111001   1.299038248   0.549959304
Si       0.981111004   0.433012547   0.549959285
Si       0.981111004   1.299038263   0.549959315
O        0.133845080   0.744663979   0.609033861
O        0.133845050   1.610689288   0.609033924
O        0.633845096   0.744663993   0.609033852
O        0.633845058   1.610689297   0.609033918
O        0.383845095   0.311651293   0.609033847
O        0.383845028   1.177676529   0.609033962
O        0.883845098   0.311651296   0.609033847
O        0.883845029   1.177676528   0.609033966
O        0.327987121   0.055270770   0.674193542
O        0.327987074   0.921296097   0.674193486
O        0.827987126   0.055270775   0.674193548
O        0.827987099   0.921296123   0.674193512
O        0.077987162   0.488283531   0.674193584
O        0.077987060   1.354308786   0.674193477
O        0.577987158   0.488283527   0.674193581
O        0.577987075   1.354308799   0.674193489
Si       0.384441607   0.200166428   0.733294932
Si       0.384441636   1.066192022   0.733294917
Si       0.884441600   0.200166427   0.733294942
Si       0.884441606   1.066192014   0.733294924
Si       0.134441610   0.633179071   0.733294915
Si       0.134441639   1.499204707   0.733294946
Si       0.634441562   0.633179080   0.733294913
Si       0.634441608   1.499204697   0.733294947
O        0.038170730   0.176470509   0.792373730
O        0.038170716   1.042495908   0.792373714
O        0.538170738   0.176470510   0.792373735
O        0.538170721   1.042495911   0.792373716
O        0.288170720   0.609483216   0.792373728
O        0.288170701   1.475508607   0.792373705
O        0.788170772   0.609483219   0.792373763
O        0.788170721   1.475508607   0.792373716
O        0.038170686   0.689554908   0.857504212
O        0.038170712   1.555580304   0.857504185
O        0.538170687   0.689554907   0.857504210
O        0.538170731   1.555580299   0.857504173
O        0.288170689   0.256542195   0.857504208
O        0.288170694   1.122567597   0.857504196
O        0.788170713   0.256542192   0.857504196
O        0.788170738   1.122567595   0.857504170
Si       0.384441649   0.665858774   0.916582943
Si       0.384441606   1.531884377   0.916582942
Si       0.884441609   0.665858781   0.916582934
Si       0.884441608   1.531884385   0.916582932
Si       0.134441643   0.232846090   0.916582940
Si       0.134441619   1.098871736   0.916582927
Si       0.634441610   0.232846105   0.916582942
Si       0.634441571   1.098871730   0.916582932
O        0.327987062   0.810754720   0.975684428
O        0.327987114   1.676780049   0.975684368
O        0.827987088   0.810754690   0.975684404
O        0.827987117   1.676780042   0.975684358
O        0.077987059   0.377742033   0.975684427
O        0.077987153   1.243767292   0.975684329
O        0.577987069   0.377742018   0.975684416
O        0.577987156   1.243767287   0.975684324
O        0.133845047   0.121361528   1.040843972
O        0.133845090   0.987386803   1.040844066
O        0.633845054   0.121361513   1.040843983
O        0.633845102   0.987386791   1.040844070
O        0.383845024   0.554374288   1.040843937
O        0.383845102   1.420399487   1.040844068
O        0.883845026   0.554374285   1.040843935
O        0.883845107   1.420399484   1.040844074
K_POINTS automatic
2 2 2 1 1 1
