Dielectric contant and Born Charges for for SiO2 O.R. 36  atoms supercell
&inputph
  prefix='SiO2_OR_144_nc'  
  tr2_ph=1.0d-14,
  epsil=.false.,
  fildyn='SiO2_144_nc.dynG',
  trans=.true.
  modenum=10
 /
0.0 0.0 0.0
