&CONTROL
calculation='scf'
prefix='SiO2_OR_144_us'
restart_mode='from_scratch'
title="'srtio_bulk'"
tprnfor=.true.
forc_conv_thr=3.d-5
PSEUDO_DIR='./'
verbosity='high'
nstep=350
/
&SYSTEM
IBRAV=8
celldm(1) = 18.572235754766361
celldm(2)=  1.73205081
celldm(3) = 1.09991860 
NAT=144
ntyp=2
ECUTWFC=40
ecutrho=320
occupations='fixed'
/
&ELECTRONS
startingpot='atomic'
conv_thr=1e-10
/
&ions
/
&cell
/
ATOMIC_SPECIES
'Si'    47.867     'Si.pbesol-n-rrkjus_psl.0.1.UPF'
'O'      15.9994     'O.pbesol-n-rrkjus_psl.0.1.UPF' 
ATOMIC_POSITIONS alat
Si        0.233601868   0.000000000   0.000000000
Si        0.233601845   0.866025400   0.000000000
Si        0.733601864   0.000000000   0.000000000
Si        0.733601728   0.866025400   0.000000000
Si        0.483601829   0.433012448  -0.000000013
Si        0.483601829   1.299038362   0.000000013
Si        0.983601824   0.433012402  -0.000000008
Si        0.983601824   1.299038408   0.000000008
O         0.137559296   0.748772963   0.063661402
O         0.137559245   1.614798169   0.063661531
O         0.637559323   0.748772995   0.063661381
O         0.637559250   1.614798182   0.063661530
O         0.387559329   0.315760340   0.063661343
O         0.387559202   1.181785370   0.063661596
O         0.887559353   0.315760373   0.063661319
O         0.887559206   1.181785354   0.063661595
O         0.329181031   0.060932946   0.119717024
O         0.329180940   0.926958189   0.119716890
O         0.829181009   0.060932954   0.119717019
O         0.829180966   0.926958251   0.119716938
O         0.079181090   0.493945757   0.119717078
O         0.079180907   1.359970843   0.119716864
O         0.579181047   0.493945746   0.119717064
O         0.579180897   1.359970857   0.119716868
Si        0.383211588   0.202531838   0.183352811
Si        0.383211665   1.068557542   0.183352751
Si        0.883211569   0.202531838   0.183352820
Si        0.883211571   1.068557541   0.183352762
Si        0.133211595   0.635544480   0.183352777
Si        0.133211642   1.501570276   0.183352798
Si        0.633211512   0.635544498   0.183352766
Si        0.633211645   1.501570248   0.183352800
O         0.033247210   0.178558252   0.246257187
O         0.033247184   1.044583592   0.246257146
O         0.533247202   0.178558269   0.246257167
O         0.533247166   1.044583601   0.246257129
O         0.283247177   0.611570956   0.246257171
O         0.283247193   1.477596286   0.246257127
O         0.783247242   0.611570948   0.246257220
O         0.783247184   1.477596284   0.246257139
O         0.033247223   0.687467200   0.303702100
O         0.033247290   1.553492557   0.303702038
O         0.533247229   0.687467210   0.303702102
O         0.533247266   1.553492556   0.303702056
O         0.283247256   0.254454488   0.303702106
O         0.283247222   1.120479833   0.303702084
O         0.783247248   0.254454511   0.303702102
O         0.783247309   1.120479832   0.303702017
Si        0.383211654   0.663493252   0.366606631
Si        0.383211585   1.529518964   0.366606582
Si        0.883211558   0.663493250   0.366606603
Si        0.883211566   1.529518988   0.366606564
Si        0.133211616   0.230480549   0.366606578
Si        0.133211587   1.096506331   0.366606601
Si        0.633211624   0.230480589   0.366606602
Si        0.633211495   1.096506332   0.366606604
O         0.329180954   0.805092580   0.430242374
O         0.329181021   1.671117833   0.430242256
O         0.829180965   0.805092521   0.430242327
O         0.829181037   1.671117826   0.430242254
O         0.079180946   0.372079948   0.430242393
O         0.079181131   1.238105015   0.430242179
O         0.579180949   0.372079922   0.430242386
O         0.579181096   1.238105016   0.430242183
O         0.137559221   0.117252663   0.486297731
O         0.137559292   0.983277872   0.486297870
O         0.637559238   0.117252660   0.486297721
O         0.637559298   0.983277824   0.486297896
O         0.387559189   0.550265486   0.486297652
O         0.387559341   1.416290506   0.486297906
O         0.887559178   0.550265476   0.486297661
O         0.887559374   1.416290466   0.486297952
Si        0.233601850   0.000000000   0.549959300
Si        0.233601855   0.866025400   0.549959300
Si        0.733601869   0.000000000   0.549959300
Si        0.733601712   0.866025400   0.549959300
Si        0.483601847   0.433012445   0.549959296
Si        0.483601847   1.299038365   0.549959304
Si        0.983601830   0.433012386   0.549959282
Si        0.983601830   1.299038424   0.549959318
O         0.137559292   0.748772938   0.613620730
O         0.137559221   1.614798147   0.613620869
O         0.637559298   0.748772986   0.613620704
O         0.637559238   1.614798150   0.613620879
O         0.387559341   0.315760294   0.613620694
O         0.387559189   1.181785324   0.613620948
O         0.887559374   0.315760334   0.613620648
O         0.887559178   1.181785334   0.613620939
O         0.329181021   0.060932977   0.669676344
O         0.329180954   0.926958220   0.669676226
O         0.829181037   0.060932984   0.669676346
O         0.829180965   0.926958279   0.669676273
O         0.079181131   0.493945795   0.669676421
O         0.079180946   1.359970862   0.669676207
O         0.579181096   0.493945794   0.669676417
O         0.579180949   1.359970888   0.669676214
Si        0.383211585   0.202531846   0.733312018
Si        0.383211654   1.068557558   0.733311969
Si        0.883211566   0.202531822   0.733312036
Si        0.883211558   1.068557560   0.733311997
Si        0.133211587   0.635544469   0.733311999
Si        0.133211616   1.501570261   0.733312022
Si        0.633211495   0.635544468   0.733311996
Si        0.633211624   1.501570221   0.733311998
O         0.033247290   0.178558253   0.796216562
O         0.033247223   1.044583610   0.796216500
O         0.533247266   0.178558254   0.796216544
O         0.533247229   1.044583600   0.796216498
O         0.283247222   0.611570977   0.796216516
O         0.283247256   1.477596312   0.796216494
O         0.783247309   0.611570978   0.796216583
O         0.783247248   1.477596289   0.796216498
O         0.033247184   0.687467218   0.853661454
O         0.033247210   1.553492558   0.853661413
O         0.533247166   0.687467209   0.853661471
O         0.533247202   1.553492541   0.853661433
O         0.283247193   0.254454514   0.853661473
O         0.283247177   1.120479854   0.853661429
O         0.783247184   0.254454516   0.853661461
O         0.783247242   1.120479862   0.853661380
Si        0.383211665   0.663493268   0.916565849
Si        0.383211588   1.529518972   0.916565789
Si        0.883211571   0.663493269   0.916565838
Si        0.883211569   1.529518972   0.916565780
Si        0.133211642   0.230480534   0.916565802
Si        0.133211595   1.096506320   0.916565823
Si        0.633211645   0.230480562   0.916565800
Si        0.633211512   1.096506302   0.916565834
O         0.329180940   0.805092611   0.980201710
O         0.329181031   1.671117864   0.980201576
O         0.829180966   0.805092549   0.980201662
O         0.829181009   1.671117856   0.980201581
O         0.079180907   0.372079967   0.980201736
O         0.079181090   1.238105053   0.980201522
O         0.579180897   0.372079953   0.980201732
O         0.579181047   1.238105064   0.980201536
O         0.137559245   0.117252641   1.036257069
O         0.137559296   0.983277847   1.036257198
O         0.637559250   0.117252628   1.036257070
O         0.637559323   0.983277815   1.036257219
O         0.387559202   0.550265440   1.036257004
O         0.387559329   1.416290460   1.036257257
O         0.887559206   0.550265456   1.036257005
O         0.887559353   1.416290427   1.036257281
K_POINTS automatic
2 2 2 1 1 1
