&control
prefix = 'water'
calculation = 'scf'
restart_mode = 'from_scratch'
wf_collect = .true.
disk_io = 'none'
tstress = .false.
tprnfor = .false.
outdir = './out'
pseudo_dir = './pseudo'
/
&system
ibrav = 1
celldm(1) = 23.521230407
nat = 192
ntyp = 2
ecutwfc = 80
input_dft = 'pbe0'
/
&electrons
diago_thr_init=5.0d-4
mixing_mode = 'plain'
mixing_beta = 0.7
mixing_ndim = 8
diagonalization = 'david'
diago_david_ndim = 4
diago_full_acc = .true.
scf_must_converge=.false.
/
ATOMIC_SPECIES
O   15.999   O.pbe-mt_fhi.UPF
H    1.008   H.pbe-mt_fhi.UPF
ATOMIC_POSITIONS alat
 O   0.906230   0.021961   0.621040
 H   0.836285   0.033651   0.583281
 H   0.895505   0.029722   0.700284
 O   0.797006   0.720103   0.194908
 H   0.815573   0.651749   0.232813
 H   0.729656   0.750681   0.226265
 O   0.970295   0.200114   0.489963
 H   0.957617   0.137195   0.538287
 H   1.000318   0.261124   0.532756
 O   0.241468   0.422214   0.415051
 H   0.262360   0.497996   0.431642
 H   0.161804   0.414301   0.421832
 O   0.046490   0.414228   0.265014
 H   0.029847   0.341374   0.294515
 H  -0.005333   0.467767   0.295053
 O   0.097563   0.584977   0.622749
 H   0.167709   0.575103   0.660660
 H   0.065330   0.655436   0.643982
 O   0.037251   0.752609   0.340093
 H  -0.021719   0.708156   0.371747
 H   0.049302   0.817573   0.385807
 O   0.297460   0.111293   0.734432
 H   0.342106   0.096968   0.669195
 H   0.261925   0.183005   0.727346
 O   0.644149   0.487611   0.290008
 H   0.657863   0.433566   0.347846
 H   0.578141   0.529774   0.307868
 O   0.685742   0.277029   0.624220
 H   0.686907   0.346034   0.583085
 H   0.616118   0.270618   0.663796
 O   0.055456   0.439744   0.032892
 H   0.035821   0.443263   0.110710
 H  -0.011315   0.442202  -0.011714
 O   0.424157   0.430228   0.567074
 H   0.378571   0.415774   0.502515
 H   0.501702   0.427687   0.546212
 O   0.656120   0.492817   0.527135
 H   0.640895   0.509770   0.604175
 H   0.684280   0.558440   0.490331
 O   0.871057   0.364673   0.720187
 H   0.810753   0.318147   0.694607
 H   0.907572   0.329371   0.782436
 O   0.386824   0.062172   0.502189
 H   0.307093   0.067153   0.493633
 H   0.421789   0.123167   0.463304
 O   0.337102   0.562345   0.112208
 H   0.322507   0.526505   0.041801
 H   0.267595   0.584286   0.146007
 O   0.381064   0.738549   0.766378
 H   0.405809   0.767014   0.695437
 H   0.424761   0.771546   0.825177
 O   0.495229   0.285577   0.381665
 H   0.550712   0.239678   0.346029
 H   0.450896   0.322341   0.325654
 O   0.714271   0.066012   0.541806
 H   0.677949   0.011846   0.588725
 H   0.703955   0.139444   0.572729
 O   0.294121   0.448477   0.919305
 H   0.223110   0.435076   0.954414
 H   0.283211   0.491677   0.852445
 O   0.226627   0.973114   0.883955
 H   0.260799   1.016161   0.825362
 H   0.206521   0.900638   0.855707
 O   0.264014   0.196117   0.155865
 H   0.309921   0.250918   0.192527
 H   0.188108   0.203557   0.181094
 O   0.669437   0.925913   0.028015
 H   0.688098   1.003081   0.015731
 H   0.734192   0.880255   0.014710
 O   0.710857   0.117624   0.320546
 H   0.776509   0.093851   0.280801
 H   0.713177   0.089062   0.395601
 O   0.127547   0.664676   0.000370
 H   0.167549   0.706116   0.056384
 H   0.097202   0.597856   0.033068
 O   0.872849   0.027963   0.202621
 H   0.829553   0.042874   0.136604
 H   0.917318  -0.037965   0.191156
 O   0.611081   0.784452   0.257711
 H   0.569647   0.715765   0.253236
 H   0.560154   0.846578   0.256441
 O   0.588344   0.525452   0.735123
 H   0.513474   0.500137   0.720677
 H   0.589999   0.565984   0.804465
 O   0.218605   0.332255   0.694342
 H   0.148500   0.356743   0.663683
 H   0.254004   0.393475   0.732480
 O   0.494297   0.256542   0.722103
 H   0.490215   0.295443   0.792276
 H   0.459461   0.300850   0.664850
 O   0.175711   0.753244   0.810724
 H   0.254510   0.751316   0.795194
 H   0.162471   0.726811   0.885401
 O   0.682271   0.568562   0.081096
 H   0.654835   0.525919   0.143409
 H   0.723711   0.631862   0.108131
 O  -0.007869   0.785678   0.667503
 H  -0.016337   0.847404   0.616777
 H   0.060662   0.793985   0.708593
 O   0.891199   0.522290   0.364757
 H   0.867908   0.589270   0.402526
 H   0.846449   0.460464   0.389848
 O   0.824861   0.801111   0.788767
 H   0.836631   0.763519   0.858784
 H   0.889769   0.792105   0.742289
 O   0.376331   0.100768   0.996136
 H   0.328922   0.053262   0.951972
 H   0.330979   0.148780   1.041882
 O   0.491854   0.370040   0.897709
 H   0.523830   0.443322   0.889836
 H   0.413915   0.376658   0.916043
 O   0.542298   0.214780   0.088295
 H   0.535037   0.265154   0.026135
 H   0.510275   0.143662   0.069021
 O   0.844488   0.472250   0.955555
 H   0.790534   0.510991   1.000755
 H   0.847445   0.505881   0.882654
 O   0.356278   0.361604   0.228055
 H   0.366329   0.423861   0.178277
 H   0.301236   0.380275   0.283516
 O   0.652291   0.740301   0.492026
 H   0.635299   0.765632   0.417702
 H   0.584208   0.733022   0.534061
 O   0.804044   0.315613   0.398581
 H   0.869804   0.275805   0.421952
 H   0.750529   0.263693   0.368662
 O   0.295122   0.670250   0.410889
 H   0.230777   0.670541   0.362789
 H   0.285586   0.725212   0.468711
 O   0.466418   0.856988   0.580835
 H   0.541676   0.869160   0.606191
 H   0.440860   0.921760   0.540761
 O   0.653469   0.930838   0.701066
 H   0.709113   0.882962   0.733717
 H   0.602500   0.955430   0.758092
 O   0.155481   0.612405   0.230202
 H   0.127675   0.539705   0.250102
 H   0.102665   0.668460   0.253083
 O   0.531160   0.597952   0.931863
 H   0.514473   0.676478   0.928729
 H   0.579719   0.583362   0.994183
 O   0.322672  -0.007192   0.230218
 H   0.394890  -0.042375   0.229286
 H   0.329565   0.068783   0.205023
 O   0.475135   0.818770   0.938965
 H   0.415458   0.807177   0.991494
 H   0.525373   0.874648   0.967409
 O   0.844705   0.030735   0.824269
 H   0.793067   0.065779   0.874868
 H   0.829754  -0.048145   0.821128
 O   0.982707   0.221963   0.854297
 H   1.056951   0.214837   0.884160
 H   0.942336   0.153544   0.866284
 O   0.741113   0.138151   0.019378
 H   0.668834   0.161611   0.045417
 H   0.794614   0.196639   0.032458
 O   1.006151   0.193835   0.287124
 H   0.950740   0.157457   0.241731
 H   0.993513   0.175823   0.364388
 O   0.011784   0.399754   0.567025
 H   0.038888   0.475386   0.566856
 H  -0.043194   0.391141   0.624975
 O   0.536484   0.063032   0.852951
 H   0.512920   0.119801   0.801228
 H   0.477698   0.048948   0.905872
 O   0.178989   0.075951   0.384216
 H   0.120477   0.116025   0.346456
 H   0.223715   0.036728   0.330227
 O   0.029490   0.868574   0.167802
 H   0.015446   0.814882   0.225891
 H   0.103227   0.857141   0.138026
 O   0.559357  -0.008207   0.203247
 H   0.611008  -0.036013   0.148342
 H   0.593727   0.051567   0.244487
 O   0.241238   0.865127   0.078485
 H   0.245801   0.907989   0.010685
 H   0.253466   0.913380   0.141545
 O   0.046032   0.913308   0.487254
 H  -0.013227   0.955182   0.521744
 H   0.101633   0.963931   0.458950
 O   0.860372   0.818328   0.012011
 H   0.835570   0.778230   0.077007
 H   0.937323   0.839474   0.021331
 O   0.298805   0.552037   0.728776
 H   0.321305   0.524368   0.656782
 H   0.343739   0.615732   0.748218
 O   0.861424   0.721276   0.468814
 H   0.783935   0.736975   0.483068
 H   0.902366   0.723574   0.537904
 O   0.473189   0.622392   0.284721
 H   0.437143   0.592987   0.219211
 H   0.420783   0.624192   0.345588
K_POINTS automatic
1 1 1 1 1 1
