 &control
    calculation='cp'
    restart_mode='from_scratch',
    pseudo_dir = './',
    outdir='./'
    prefix='cnt10por8'
    nstep=500
    dt=3
    tstress = .false.
    tprnfor = .false.
 /
 &system
    ibrav = 0, nat= 1532, ntyp= 4,
    ecutwfc = 25.0, ecutrho = 200.0
    nr1b = 24, nr2b = 24, nr3b = 24
 /
 &electrons
  emass = 400.d0,
  emass_cutoff = 2.0d0,
  orthogonalization = 'ortho',
  electron_dynamics = 'damp',
  electron_damping = 0.1,
 /
 &ions
  ion_dynamics = 'none'
 /
ATOMIC_SPECIES
 C 12.0107  C.pbe-van_bm.UPF
 O 15.9994  O.pbe-van_bm.UPF
 N 14.00674 N.pbe-van_bm.UPF
 H  1.00794 H.pbe-van_bm.UPF
CELL_PARAMETERS {bohr}
 110.0  0.0 0.0
  0.0 120.0  0.0
  0.0  0.0 120.0
ATOMIC_POSITIONS bohr
C       51.35897292      74.28890806      76.87972239
C       49.22547228      74.89551011      78.53134291
C       48.18045380      77.45419909      78.55590935
C       49.17255995      79.37038125      76.82114089
C       51.07173457      78.66173400      74.93330463
C       52.18667290      76.13139090      74.98054777
O       52.51170577      72.01745742      77.11971759
C       48.39210312      82.01977708      77.06302581
C       48.99681543      83.39738733      79.37982988
C       47.13165588      83.25754760      74.94464298
C       50.68056129      82.48464968      81.38104970
C       50.67489211      84.40083183      83.35770308
C       48.98169762      86.41716946      82.50732639
N       48.00092984      85.78978043      80.08469767
C       45.85987029      81.95174695      72.85838549
C       45.23248126      83.86981883      70.97810813
C       46.17167508      86.29244754      71.94753756
N       47.20535519      85.87859755      74.38717381
C       46.30584562      88.65460503      70.51890472
C       45.92790043      88.62814886      67.76746368
C       47.36976136      86.88204205      66.16875549
C       46.88977095      86.76298931      63.44755007
C       44.99626551      88.41838928      62.28347886
C       43.61676554      90.22685705      63.87084869
C       44.07974841      90.32890225      66.59583356
C       44.47092169      88.25020367      59.49235357
C       46.82363055      91.04699813      71.80391839
C       47.75148601      93.35246384      70.57937595
C       47.90833326      95.28187407      72.53713207
C       47.05984629      94.10079533      74.89551011
N       46.44190590      91.52887826      74.41929916
C       46.78394630      95.38958845      77.32758745
C       46.81040246      98.16370620      77.43908129
C       45.14177442      99.65281028      75.80068885
C       45.19279702     102.41558968      75.90273406
C       46.88221205     103.72328006      77.66962786
C       48.53194284     102.23228626      79.32502782
C       48.49981750      99.46950686      79.20597509
C       46.91622712     106.56353822      77.79246005
C       46.49670795      93.93827889      79.66139905
N       47.41700451      91.45895840      80.08469767
C       45.50649153      94.92471586      82.05379215
C       45.95813604      92.99341590      83.96808458
C       47.21858328      90.87692279      82.69251953
C       48.35430860      88.69239955      83.94540786
H       48.48658941      73.45742863      79.84659220
H       46.66678329      77.94741758      79.90139425
H       51.73502839      80.06013123      73.54057657
H       53.63420301      75.61171626      73.57648137
H       51.78038181      80.71775588      81.37915997
H       51.78605099      84.35736813      85.11892770
H       45.49893263      79.90706343      72.70531768
H       44.27250046      83.54100650      69.16019173
H       48.83429900      85.66316879      67.00968356
H       47.95179696      85.41183523      62.27025078
H       42.20136078      91.49108374      63.01669254
H       42.98559706      91.65360017      67.77502258
H       43.17267994      86.63826740      59.11251865
H       43.57708130      90.00575911      58.75913989
H       46.24915384      87.94406806      58.40765085
H       48.28249901      93.57545150      68.58004585
H       48.59241407      97.23207129      72.29146769
H       43.81707650      98.69282948      74.51189573
H       43.95124704     103.51541020      74.64417655
H       49.82073596     103.19226706      80.65161547
H       49.78672090      98.37157606      80.42484835
H       48.35808805     107.31564917      76.45642377
H       45.04539839     107.37612040      77.28034430
H       47.38676889     107.24006013      79.72942918
H       44.63343812      96.78987541      82.36748666
H       45.48759427      93.12569672      85.99009138
C       48.91555721      88.80200366      86.66283384
C       50.37820513      90.91660704      87.70218313
C       50.99425580      90.99408580      90.39693239
C       50.17033527      88.95507146      92.08256797
C       48.69823873      86.84802698      91.04510840
C       48.06140107      86.77999685      88.35413860
C       50.83173937      89.03632968      94.84723709
H       51.06228594      92.43027755      86.44551535
H       52.10919414      92.58334536      91.15471251
H       48.07273942      85.29845167      92.29232756
H       46.91433739      85.20963455      87.60580710
H       50.61820033      90.98841662      95.60879667
H       52.82729001      88.42783791      95.12124736
H       49.59207912      87.77588244      95.98485214
H       48.41100038      87.10691944      75.24510941
H       48.63776749      90.57078718      78.89417030
C       55.05338723      71.70565264      77.00066486
O       56.64831596      73.73710807      77.52789841
C       39.54629576      72.32170331      35.75928488
C       37.56586293      72.98121768      37.57720128
C       36.62855884      75.57770119      37.71704101
C       37.56208347      77.49010389      35.94447803
C       39.31574919      76.74744157      33.93003012
C       40.31541424      74.17174505      33.84499246
O       40.63855738      70.00867870      35.88778625
C       36.82698007      80.14894835      36.22982665
C       37.47515608      81.49632298      38.55418962
C       35.59298899      81.44341066      34.12467190
C       39.23638070      80.57980588      40.48737931
C       39.29685193      82.48653940      42.47159159
C       37.56019375      84.50098731      41.69869366
N       36.49438829      83.87926746      39.31008001
C       34.36466710      80.18863260      31.97983290
C       33.83176437      82.14260927      30.10900418
C       34.76717874      84.53311265      31.15024320
N       35.71582118      84.07012978      33.61444588
C       34.98071777      86.91794684      29.76507405
C       34.82576024      86.91605712      26.99284602
C       36.42635816      85.21341400      25.50374194
C       36.25628282      85.19829620      22.74285227
C       34.51395546      86.91227767      21.43705161
C       32.91713700      88.61870023      22.92993515
C       33.06642535      88.61681051      25.69082481
C       34.37411573      86.92361602      18.59679345
C       35.36622188      89.29711186      31.11811785
C       36.24116501      91.66493853      29.98239253
C       36.23171638      93.55655424      31.98172263
C       35.34921434      92.28476865      34.27962943
N       34.86355476      89.69962350      33.72782944
C       34.92780545      93.50742137      36.72304514
C       34.67458216      96.27020076      36.85154650
C       32.90390891      97.59111923      35.17913900
C       32.68092125     100.34633972      35.28118421
C       34.20026094     101.80898763      37.08020335
C       35.96526501     100.48617944      38.75639030
C       36.20714994      97.73284868      38.63733756
C       33.94514793     104.63790744      37.20681499
C       34.77095819      92.00130975      39.03606975
N       35.82164584      89.56356323      39.38944851
C       33.77507259      92.88381179      41.47003682
C       34.37222601      90.94117347      43.33141692
C       35.70637255      88.91727694      41.98782174
C       36.97059924      86.76487904      43.17456966
H       36.87044376      71.54880538      38.91890673
H       35.22638215      76.09737583      39.16835057
H       39.95069712      78.15150798      32.52785344
H       41.64011216      73.62750397      32.33132194
H       40.35131903      78.82425044      40.42879780
H       40.48171013      82.44496543      44.18179361
H       33.98483218      78.15150798      31.77952195
H       32.94737261      81.85537092      28.24573435
H       37.78885059      83.96052567      26.45805357
H       37.45247937      83.89627499      21.64303175
H       31.58110072      89.89804473      21.96995434
H       31.82109592      89.87158856      26.79253507
H       32.99839521      85.47041674      17.94483799
H       33.75806506      88.79633448      17.86357977
H       36.24872391      86.49842768      17.74074758
H       36.84587733      91.95595633      28.01140833
H       36.82509034      95.54265626      31.80408839
H       31.71149181      96.51019596      33.85822054
H       31.36189251     101.32143833      33.99806026
H       37.13500540     101.56710271      40.09998548
H       37.58664991      96.76530897      39.86754918
H       35.31141982     105.53741701      35.88022735
H       32.00439934     105.25584784      36.68147116
H       34.33065203     105.35411359      39.14567385
H       32.79997398      94.68661038      41.83664366
H       33.94136848      91.00920361      45.36854153
C       37.70192320      86.91038794      45.85042166
C       39.13622522      89.08924201      46.78394630
C       39.94691767      89.19884611      49.42767296
C       39.33653618      87.12959616      51.16622087
C       37.85877046      84.97530853      50.24403458
C       37.02729102      84.87515305      47.60408738
C       40.23604575      87.23164136      53.86285985
H       39.66534850      90.62747896      45.48192509
H       41.04862792      90.83156937      50.10230514
H       37.37122115      83.41439486      51.53660716
H       35.87266844      83.27077569      46.95024219
H       39.87888754      89.13270570      54.69622901
H       42.30340598      86.84991671      53.93844889
H       39.26283686      85.81434687      55.07417421
H       36.91957664      85.26254688      34.52151436
H       37.05752664      88.75853996      38.15545744
C       43.16134158      69.63640268      35.63078351
O       44.82430045      71.63951223      36.04274378
C       65.83994317      67.08338287      29.69137473
C       66.63173836      69.15263283      31.34866442
C       68.87484311      70.64929581      30.72694457
C       70.30158623      70.11639308      28.41014051
C       69.32081844      68.25312326      26.60734192
C       67.06637533      66.77535753      27.22717204
O       63.96722471      65.52057948      30.47372129
C       72.72421494      71.38061977      27.92070148
C       74.71976559      71.32770744      29.83499391
C       73.17019028      72.57681632      25.47161660
C       74.75567038      69.70632254      32.08187811
C       77.03845938      70.33938075      33.48405479
C       78.33103195      72.32737249      32.04975277
N       76.91373746      72.87917248      29.83499391
C       71.20109580      73.38372931      23.69527417
C       72.46910194      74.01300807      21.32744751
C       75.17518955      73.55380465      21.71673106
N       75.54935530      72.80358344      24.26219197
C       77.11026896      73.55569438      19.74385713
C       76.36760665      73.39884712      17.07367431
C       74.61205121      71.42975264      16.22518734
C       73.86371972      71.27668484      13.56634287
C       74.89173065      73.07192453      11.71819086
C       76.65295527      75.03723955      12.56856755
C       77.38049978      75.20542517      15.23119147
C       74.15473752      72.89051083       8.97619845
C       79.78990042      73.68608547      20.41848931
C       81.89883462      72.99822521      18.76308934
C       84.21185923      73.53490739      20.15770712
C       83.44274075      74.53835189      22.62002008
N       80.75932985      74.58559504      22.75797008
C       85.15483250      75.46431763      24.58533511
C       87.78533107      76.08603748      23.94849745
C       88.35413860      77.72442991      21.78854065
C       90.97707827      78.31024497      21.13091600
C       93.05955631      77.29357238      22.65214543
C       92.48885906      75.67029776      24.82344059
C       89.86780911      75.06369572      25.46405770
C       95.75619529      77.91907169      21.99452078
C       84.26099210      75.77990187      27.18370835
N       82.22575722      74.44953477      28.30809531
C       85.49120372      77.31246964      29.13579529
C       84.19107224      76.77956692      31.50929113
C       82.20497023      74.93141490      30.94237334
C       80.66862300      73.58970945      32.81131234
H       65.59994797      69.51734994      33.12122740
H       69.49845268      72.16296633      32.01384797
H       70.32048349      67.90541367      24.81210223
H       66.29536713      65.44310071      25.82499536
H       73.37239096      68.23233627      32.58076577
H       77.69419429      69.44743008      35.24527941
H       69.15074310      73.44420055      24.05243238
H       71.55258483      74.65173545      19.57000234
H       73.87883752      70.02757596      17.58012087
H       72.52768344      69.80269857      12.95218193
H       77.42018403      76.40918062      11.20229566
H       78.66173400      76.72287514      15.85480104
H       72.44453550      74.06403067       8.62092996
H       75.70242310      73.56892246       7.72331012
H       73.72765944      70.90440882       8.43006764
H       81.77222298      72.17808413      16.85257637
H       86.15638727      73.19664644      19.49819275
H       86.80456329      78.55212989      20.66604341
H       91.38336936      79.52344905      19.48874412
H       94.04032410      74.88039230      25.96861454
H       89.46718720      73.79379985      27.06843506
H       96.51019596      76.49043884      20.64714615
H       95.90548365      79.82013603      21.10445984
H       96.97884801      77.92852032      23.70661253
H       87.10880917      78.59748332      28.88068228
H       84.64460648      77.58836964      33.37256096
C       81.49065381      73.49333342      35.46259790
C       84.08524759      72.74500193      36.09565611
C       84.91105784      72.66752316      38.73560331
C       83.14794350      73.31569918      40.77272793
C       80.54579081      74.02812588      40.14155945
C       79.72753946      74.13206081      37.49972252
C       84.00776882      73.25522795      43.48637445
H       85.41183523      72.19698139      34.58576504
H       86.86314479      72.10060537      39.18913755
H       79.19652646      74.49488820      41.65711969
H       77.78301142      74.73110394      37.04996773
H       86.02788590      73.82592520      43.65456006
H       83.79800924      71.30881018      44.25738265
H       82.88149213      74.56858751      44.68257100
H       77.13105595      71.89651496      24.87257346
H       81.39238805      72.91318754      27.50496176
C       63.88407677      63.00724391      29.97294390
O       66.05159248      61.73734805      29.17736926
C       57.40231663      34.73316367      35.43047256
C       58.45111455      33.82798492      37.82664511
C       59.67187754      31.35055415      37.95892593
C       59.65298028      29.66680829      35.75739516
C       58.35851798      30.47750074      33.44248082
C       57.27948444      33.01729247      33.26106712
O       56.53115295      37.13311568      35.29630201
C       60.98145765      27.22528232      35.82353557
C       60.77925697      25.56421317      38.02506634
C       62.53670214      26.45427411      33.67302739
C       58.86685427      25.72295016      40.02250671
C       59.52636864      23.81999609      41.90467380
C       61.79970900      22.53876187      40.97870806
N       62.51024598      23.59700842      38.61655058
C       63.61384595      28.14368915      31.75684524
C       64.62106991      26.53742206      29.75184596
C       64.13730005      23.91448239      30.50206718
N       62.98645693      23.92582074      32.91902672
C       64.47367128      21.68649544      28.90524872
C       64.59461374      21.96806462      26.14435905
C       62.70299803      23.49496322      24.81588168
C       62.83338912      23.79920910      22.06822009
C       64.83649867      22.54821050      20.61502081
C       66.72433493      21.01564272      21.94538791
C       66.60906165      20.73407355      24.69682894
C       64.94610278      22.82977967      17.78799073
C       64.65130552      19.17882906      30.05798157
C       64.24690416      16.76942842      28.75218092
C       64.70799730      14.78143668      30.60222266
C       65.38829866      16.03810447      32.97571850
N       65.30893017      18.69883866      32.61667056
C       66.14985823      14.77387778      35.31141982
C       66.93976369      12.11125386      35.25850749
C       68.81059242      11.23820045      33.41035548
C       69.56081364       8.57746626      33.33098699
C       68.47989037       6.76521904      35.12811640
C       66.63173836       7.64394162      36.99894513
C       65.86261988      10.30089636      37.05941636
C       69.26412666       4.03078553      35.06575544
C       66.14040960      16.14959830      37.70948210
N       64.57193703      18.23774552      38.30474579
C       67.55392464      15.44473050      39.98471219
C       66.71110685      17.12280718      42.00482927
C       64.79114524      18.79710441      40.91445738
C       63.18487815      20.55832903      42.31852379
H       58.43977620      35.07331435      39.49716289
H       60.67154259      30.79308498      39.69936357
H       58.18466319      29.17170009      31.82865483
H       56.32328309      33.61255616      31.50929113
H       57.21145430      26.98528712      40.07163959
H       58.48135017      23.40047692      43.65456006
H       63.63274321      30.22427746      31.79652948
H       65.53002811      27.18370835      27.99440079
H       61.14775354      24.38880361      25.87601796
H       61.41609463      24.97083921      21.09123176
H       68.25123353      20.08967698      20.87958245
H       68.07548901      19.62669412      25.67948646
H       66.09316645      24.52108443      17.28343389
H       65.81348700      21.14225436      16.88281198
H       63.02047199      23.06221596      16.96973938
H       63.64786102      16.50297706      26.77741726
H       64.52469388      12.73108399      30.28285897
H       69.68742528      12.59313399      32.09132674
H       70.94220334       7.93684915      31.91180277
H       65.79836920       6.29845672      38.35009921
H       64.43209731      10.92450594      38.43702661
H       67.91864176       2.93285473      33.87900752
H       71.19542662       3.80212869      34.26640135
H       69.27924447       3.20119582      36.99894513
H       68.96743968      13.92350108      40.15289781
H       67.38006985      17.11146883      43.97581348
C       62.97511857      20.35612835      45.07941346
C       62.44977474      17.91082292      46.27372028
C       62.31560420      17.70295306      49.02894077
C       62.67276241      19.94227836      50.62009006
C       63.12818637      22.39892214      49.42200378
C       63.28692336      22.60490228      46.66867301
C       62.58394529      19.72873932      53.45656876
H       62.11718297      16.22329761      45.09642099
H       61.93010010      15.85291132      49.90388391
H       63.36440212      24.10156526      50.60119280
H       63.69132472      24.45305429      45.79561961
H       63.01291309      17.77287292      54.10096533
H       60.66776314      20.25030369      54.15009820
H       63.98990143      21.01186327      54.35229888
H       62.02080695      22.42348858      33.63712260
H       63.07527405      18.78198660      37.22382252
C       56.96012075      38.71292660      33.32342808
O       58.89520016      38.17435470      31.61700551
C       72.52390399      38.39923209      75.34715462
C       74.43252724      37.77373279      77.25577787
C       75.94808748      35.47204653      77.01767239
C       75.52667859      33.73916780      74.89551011
C       73.73143890      34.44781505      72.90562864
C       72.33493139      36.82886979      73.07003480
O       71.11794785      40.51005602      75.70431283
C       76.87783267      31.31464936      74.76889846
C       77.04223883      29.69704391      77.00633403
C       78.01922716      30.49261855      72.39162317
C       75.45864845      29.89546514      79.26833604
C       76.38839364      28.01707751      81.05601683
C       78.49732784      26.71883575      79.82013603
N       78.84314770      27.73739806      77.35782307
C       78.66173400      32.12345208      70.24489445
C       79.30046138      30.46049321      68.13784997
C       79.04156892      27.86023025      69.05814653
N       78.38016483      27.94337819      71.65274031
C       79.13038605      25.57744126      67.50479176
C       78.70708742      25.75507550      64.76468908
C       76.53012309      27.15914191      63.77825211
C       76.10304501      27.33488642      61.04948779
C       77.82836484      26.08199809      59.27881454
C       80.01099836      24.68927004      60.26714123
C       80.45508396      24.53620224      62.99401583
C       77.35404362      26.22183782      56.47824062
C       79.60848672      23.12079747      68.67642188
C       79.09070180      20.65281533      67.53124793
C       79.97320384      18.74797153      69.31514926
C       81.00121477      20.11235370      71.49589305
N       80.73287368      22.75419063      71.08960196
C       82.21630859      18.95206194      73.68986492
C       83.15928185      16.34424008      73.53490739
C       84.75987977      15.55811406      71.41463483
C       85.68395577      12.95407165      71.25211840
C       85.04711812      11.11914772      73.22877178
C       83.45029966      11.90716345      75.35093407
C       82.50354694      14.50175724      75.50022242
C       86.02599618       8.45085462      73.08893206
C       82.50543666      20.37691533      76.04068405
N       80.95964080      22.41970913      76.82681007
C       84.25343320      19.76653384      78.10048538
C       83.63738253      21.44083107      80.20375041
C       81.52466887      23.03198035      79.37227097
C       80.07524904      24.76107963      80.96908943
H       74.70842723      39.03229029      78.89228057
H       77.41073540      35.05252736      78.43874633
H       73.40829575      33.17791918      71.28613347
H       71.19542662      37.45436909      71.44676018
H       73.83537383      31.16914046      79.55179494
H       75.61360598      27.61834532      82.94574282
H       78.62393948      34.20404039      70.20709993
H       79.82769494      31.05575690      66.21221919
H       75.18274846      28.05487203      65.08972195
H       74.47032176      28.40825079      60.32950219
H       81.33758600      23.76519403      58.95378167
H       82.13694009      23.53275774      63.70833225
H       78.23276620      27.96227545      55.69022488
H       78.16284634      24.55698922      55.47668585
H       75.29046284      26.26719124      56.05872145
H       78.16095661      20.29565712      65.70199317
H       79.83903329      16.68439075      69.08271296
H       85.30790030      16.93572431      69.95198692
H       86.86692424      12.37959495      69.63829241
H       82.94007364      10.53900184      76.83436897
H       81.25632778      15.05544695      77.07625390
H       84.58035580       7.20741492      72.19887112
H       87.79477970       8.33558134      71.95131702
H       86.46252288       7.70441286      75.00889366
H       85.73497838      18.30199620      78.08347785
H       84.57090717      21.48240504      82.06324078
C       80.20375041      24.54187141      83.73375855
C       79.85793055      22.08144818      84.96208045
C       79.99588055      21.86601941      87.71730094
C       80.45508396      24.11101389      89.27632488
C       80.77066820      26.57521658      88.04800299
C       80.66106410      26.78686589      85.29278249
C       80.61193122      23.88613650      92.10713441
H       79.44597029      20.39014342      83.81690650
H       79.72753946      20.00841877      88.62058996
H       81.09570107      28.27785969      89.20262556
H       80.96153053      28.64257681      84.39138320
H       81.33380655      21.99641051      92.68728029
H       78.70519770      24.16014676      92.95184193
H       81.91395243      25.32799742      92.91593713
H       77.60915662      26.45238439      72.59193413
H       79.30613056      22.88836117      75.96698474
C       68.81815133      40.99949505      74.68952997
O       67.36495204      39.08709235      73.60860671
C       80.37382575      67.05692670      73.65773958
C       81.69852366      68.67075270      75.47565598
C       83.89627499      70.15418760      74.68952997
C       84.83357908      69.98978144      72.08359783
C       83.40116678      68.51201572      70.22788691
C       81.10703943      67.16086163      70.98566703
O       78.41417990      65.63774249      74.50244710
C       87.18250848      71.27668484      71.34849442
C       89.42561323      71.09338142      72.95665124
C       87.29778177      72.71287659      68.98633694
C       89.84135295      69.21121433      74.94464298
C       92.23185632      69.85183144      76.15595734
C       93.20506521      72.09493619      74.85960531
N       91.49864264      72.79980398      72.90751837
C       85.12648661      73.69175465      67.57282190
C       86.09024686      74.60827176      65.15397263
C       88.82657009      74.17363478      65.16342126
N       89.50876118      73.13428548      67.53502738
C       90.52165430      74.48732929      63.00157473
C       89.48608446      74.54213135      60.42587821
C       87.70596258      72.58437522      59.59250905
C       86.70062836      72.61839029      57.01492280
C       87.48486464      74.58937450      55.23102147
C       89.24608926      76.55657925      56.07005981
C       90.23063650      76.53957172      58.65709469
C       86.50031740      74.58748477      52.56083865
C       93.24663918      74.73299367      63.40030692
C       95.19872613      74.34937929      61.47467613
C       97.61379594      74.92574572      62.66709323
C       97.06199595      75.64762105      65.28247400
N       94.41260012      75.48510461      65.70199317
C       98.91959660      76.50744637      67.14196437
C      101.41781436      77.38238951      66.30670549
C      101.64080202      79.25321824      64.27336032
C      104.13335060      80.11493329      63.43810144
C      106.42936768      79.14550385      64.65130552
C      106.20449028      77.28034430      66.68843014
C      103.71383143      76.39784227      67.50668149
C      108.99372584      80.05635178      63.82360554
C       98.29976647      76.49232857      69.83671363
N       96.50452678      74.89362038      71.01401292
C       99.62635412      77.91907169      71.80769784
C       98.63991715      77.04412855      74.23032656
C       96.74263226      75.10337996      73.67474712
C       95.51242064      73.46309781      75.52856831
H       81.05601683      68.74256229      77.45608882
H       84.84680716      71.39573757      76.06525049
H       84.05501197      68.38918353      68.25501298
H       79.91651206      66.28024932      69.52490885
H       88.62625914      67.58227053      75.40006694
H       93.14648370      68.81059242      77.70931210
H       83.13660514      73.70876218      68.19265202
H       84.96585990      75.43786146      63.61195623
H       87.15794205      71.05180744      60.89075080
H       85.35703318      71.14629374      56.41398994
H       89.82434542      78.06836004      54.75858997
H       91.51187072      78.06080114      59.27881454
H       84.75421059      75.75533543      52.44367564
H       87.92139134      75.37739023      51.22480237
H       86.04300371      72.63917727      51.91077291
H       94.91337750      73.69553410      59.51880974
H       99.49407330      74.79157518      61.77892202
H       99.92871028      80.04690315      63.39274801
H      104.27885950      81.50388189      61.89230558
H      107.91847176      76.52445391      67.59927806
H      103.57399171      74.95409161      69.00145475
H      109.81197720      78.71086688      62.42520831
H      108.88790119      81.95741612      62.92787542
H      110.30897513      80.20186068      65.45821852
H      101.10600957      79.35526344      71.52423894
H       99.23518084      77.70175320      76.11438337
C       96.59712336      73.18152863      78.06836004
C       99.29187262      72.62405947      78.38772373
C      100.37657534      72.38028481      80.91995656
C       98.77597742      72.66185399      83.16495103
C       96.06988981      73.17774918      82.84558734
C       94.99085627      73.44986972      80.31146479
C       99.89280548      72.43508687      85.77088317
H      100.50507670      72.34815947      76.71720596
H      102.40425132      71.95698619      81.13727505
H       94.84156791      73.36672178      84.51610511
H       92.96884946      73.89962451      80.09981548
H      101.91481229      73.01712247      85.78978043
H       99.76808357      70.43953622      86.42661809
H       98.87424317      73.65584986      87.14660369
H       91.16983032      72.21776838      67.85061162
H       95.69572406      73.38372931      70.13906979
C       77.52033950      63.49101376      73.42341356
O       78.93007509      62.18710283      71.62061497
C       53.46223794      44.00037992       9.07068475
C       54.49780778      60.02525630       7.89905463
C       40.23982520      66.33694110      11.70874223
C       30.30364595      54.21434889      15.18583804
C       38.44458551      40.39100328      13.59279904
C       46.54206137      39.65589987      11.27788470
C       56.48013035      51.80116880       7.78567107
C       48.34674969      65.64341167       9.40894570