 &control
    calculation='scf'
    restart_mode='from_scratch',
    pseudo_dir = './',
    outdir='./out'
    prefix='cnt10por8'
    tstress = .false.
    tprnfor = .false.
    disk_io ='none'
 /
 &system
    ibrav = 3, celldm(1) =132.28, nat= 1532, ntyp= 4,
    ecutwfc = 25.0, ecutrho = 100.0
    occupations='smearing', smearing='gaussian', degauss=0.02
 /
 &electrons
    diagonalization='david',
    mixing_mode='local-TF',
    electron_maxstep=4
    scf_must_converge=.FALSE.
    conv_thr = 1.0d-6,
    mixing_beta = 0.2,
 /
ATOMIC_SPECIES
 C 12.0107  C.pbe-van_bm.UPF
 O 15.9994  O.pbe-van_bm.UPF
 N 14.00674 N.pbe-van_bm.UPF
 H  1.00794 H.pbe-van_bm.UPF
ATOMIC_POSITIONS bohr
C       37.10854924      76.85704568      50.29694691
C       35.63078351      77.67151758      48.10297504
C       36.03896433      80.18485315      47.02016205
C       38.02506634      81.82324558      48.03683463
C       39.72204028      80.86515450      50.00214966
C       39.24960878      78.39528264      51.15299278
O       36.48304994      74.67441216      51.47424620
C       38.22159784      84.46130306      47.21102437
C       36.13156090      86.19607152      47.72314012
C       40.54218136      85.33057701      45.99593056
C       33.96593492      85.63860235      49.35775310
C       32.31620413      87.84013313      49.26326680
C       33.51995959      89.66749816      47.56818258
N       35.83865337      88.64893585      46.67056274
C       42.43190735      83.69029486      44.80918264
C       44.60698196      85.27766469      44.21013950
C       44.00226964      87.83824340      45.08508264
N       41.50216216      87.83257422      46.04884289
C       45.77861207      89.95284678      45.22870181
C       48.50170722      89.48986392      44.93390456
C       49.76593391      87.54344615      46.44946480
C       52.44745509      86.99164616      46.05451207
C       53.90821328      88.40894065      44.17423471
C       52.66288385      90.41582965      42.72103542
C       49.97569349      90.95062210      43.09709090
C       56.65209541      87.79477970      43.73770801
C       44.86965387      92.52476385      45.67089769
C       46.41356001      94.62802888      46.59875315
C       44.77894703      96.84278774      46.66867301
C       42.29017790      96.02831584      45.76538399
N       42.37332584      93.40159671      45.20224565
C       40.09998548      97.67615690      45.39688742
C       40.42312862     100.43326712      45.37799016
C       42.31852379     101.61434586      43.73959773
C       42.65111556     104.36200745      43.74526691
C       41.06185601     105.96071563      45.36098263
C       39.14945331     104.77774716      46.98047780
C       38.83386907     102.03008558      46.99370588
C       41.38499915     108.78585598      45.34964427
C       37.57531156      96.60279254      45.06051620
N       36.74383212      94.23685560      46.00348947
C       35.39645749      97.93126991      43.98148266
C       33.19114726      96.32878227      44.40478128
C       34.08309793      94.06678026      45.73325865
C       32.47116166      92.12603167      46.86331479
H       34.12845135      76.44508542      47.34708464
H       34.82953970      80.85003670      45.45924838
H       41.29807175      82.04245379      50.69000992
H       40.51383547      77.69230457      52.64965577
H       33.66168903      83.91517225      50.48402978
H       30.53986170      88.09524614      50.32151335
H       42.27317036      81.63994216      44.48414977
H       46.37576549      84.65216538      43.31251966
H       48.70390790      86.50031740      47.90455381
H       53.36964137      85.49498318      47.17322985
H       53.74380712      91.50431182      41.31129984
H       49.04972776      92.42271865      41.95002722
H       56.81272212      86.12048248      42.47537105
H       57.67821662      89.39915707      42.84008816
H       57.62530430      87.36014273      45.55184495
H       48.40911065      94.54677066      47.18834766
H       45.30807030      98.74385208      47.33007711
H       43.47881555     100.44082602      42.46970187
H       44.10053540     105.22750195      42.52828337
H       37.95514648     105.95882591      48.21257915
H       37.42413348     101.16081162      48.25793257
H       42.78150666     109.34899433      46.81985109
H       42.07096968     109.47182652      43.48259500
H       39.56519302     109.76473405      45.75026618
H       35.40212667      99.80398836      43.07252446
H       31.22772196      96.76719870      43.86998882
C       29.78964048      92.67027275      47.33952574
C       29.05642680      94.94739257      48.73603325
C       26.39002343      95.45761859      49.27082570
C       24.43037758      93.69072479      48.42422846
C       25.16548099      91.41927415      47.01638260
C       27.82810491      90.92038649      46.46269288
C       21.69405435      94.21795834      49.00059488
H       30.51529526      96.25886241      49.43712159
H       25.85901043      97.16593088      50.33663116
H       23.71039198      90.07378925      46.37576549
H       28.35344873      89.23097145      45.36098263
H       21.25374819      96.25697268      48.73414352
H       21.27264545      93.69639397      50.99425580
H       20.40715095      93.12380699      47.74581683
H       40.81241218      89.20262556      47.20913465
H       37.74538690      93.19561658      47.27338533
C       36.48116021      74.39662244      54.02159684
O       36.23549583      76.51500528      55.57117215
C       77.72631964      68.26635134      39.77873206
C       76.08981693      69.16019173      37.73404854
C       76.38459529      71.73021907      36.75328075
C       78.40851072      73.35916288      37.71326155
C       80.23020657      72.34815947      39.53684713
C       79.88436782      69.81025747      40.57808615
O       77.20664499      66.02324659      40.89933957
C       78.56346825      76.01422789      36.93091499
C       76.46209295      77.72065046      37.48838416
C       80.87838259      76.94019362      35.74227735
C       74.36071765      77.15184294      39.20047591
C       72.69775878      79.34581481      39.17213002
C       73.82403547      81.18073874      37.42980266
N       76.11627309      80.17351479      36.44903487
C       82.83235926      75.34337516      34.59710340
C       85.00176469      76.97042924      34.09443629
C       84.32146334      79.51211070      34.96371024
N       81.79112024      79.45730864      35.84243283
C       86.05623179      81.65317024      35.18291846
C       88.79822420      81.21664354      35.11110887
C       89.95662623      79.33447645      36.78162664
C       92.68539056      78.88661139      36.69847870
C       94.28976793      80.33981068      34.96937942
C       93.13136590      82.22764694      33.30453082
C       90.39882212      82.65850447      33.36878151
C       97.10168020      79.90517370      34.91646709
C       85.08113318      84.22130786      35.49094379
C       86.55134000      86.40016192      36.36588692
C       84.87326333      88.58090571      36.26573145
C       82.42984762      87.66627834      35.33220681
N       82.58480515      85.01877223      34.90323901
C       80.22075794      89.24608926      34.81820134
C       80.53256273      91.98997140      34.51962463
C       82.44118598      92.99908508      32.78296645
C       82.77944693      95.73162886      32.51462536
C       81.19018737      97.48529457      33.95837601
C       79.27776578      96.47618089      35.68936502
C       78.95653125      93.74363712      35.97660337
C       81.51520135     100.29531712      33.65790958
C       77.70553265      88.11981257      34.61222121
N       76.94586280      85.78600098      35.68936502
C       75.46998681      89.35002419      33.53129794
C       73.31001110      87.73241875      34.09821574
C       74.28323889      85.55167495      35.50228215
C       72.73933275      83.63549280      36.76272938
H       74.56102861      67.94320819      37.01784239
H       75.07125462      72.44264577      35.30008147
H       81.81757640      73.52734849      40.19447178
H       81.25632778      69.06003625      41.95569640
H       74.11125492      75.43030256      40.34376013
H       70.96865950      79.59714836      40.30407588
H       82.72275515      73.29302247      34.25506299
H       86.82157082      76.37894501      33.27240548
H       88.77932694      78.27245045      38.13467045
H       93.53387753      77.45041964      37.94758758
H       94.31433436      83.31423938      31.97983290
H       89.54466597      84.04556334      32.07053975
H       97.55521443      78.34048058      33.58421027
H       98.13536031      81.62860380      34.29663697
H       97.82542635      79.38927851      36.82509034
H       88.52610366      86.39260302      37.02540129
H       85.34380510      90.52732348      36.83453897
H       83.60903664      91.70084332      31.64535140
H       84.23453594      96.46862199      31.22205278
H       78.08914703      97.77631238      36.80052390
H       77.55435457      93.00853371      37.32964718
H       82.92495583     101.00207464      35.05063764
H       82.18418324     100.78664587      31.72283017
H       79.70106440     101.31387943      33.97160410
H       75.41518475      91.16983032      32.52029454
H       71.32392799      88.11036394      33.60499725
C       70.10127527      84.21185923      37.40901567
C       69.47955542      86.53622219      38.78284646
C       66.86606438      87.07290438      39.51039097
C       64.84027812      85.29089277      38.87733276
C       65.45443907      82.98920651      37.46003827
C       68.06604038      82.46197296      36.71170678
C       62.17009530      85.82946468      39.69369439
H       70.99133621      87.86280984      39.32708755
H       66.42386850      88.81334201      40.56674780
H       63.95021718      81.63994216      36.95737116
H       68.49500818      80.75177094      35.60243762
H       61.65420010      87.82879477      39.28173412
H       61.97734325      85.50254208      41.76294435
H       60.77925697      84.59925306      38.70347797
H       81.04845792      80.80090382      36.99894513
H       78.00410936      84.82224072      36.97437869
C       77.33136690      65.66419865      43.43535185
O       77.19152718      67.73911779      45.05484702
C       82.16150653      62.65575488      66.31993357
C       80.82734109      64.97444867      67.03047054
C       81.61348599      66.39741233      69.26790611
C       83.77720335      65.53758701      70.77212800
C       85.29278249      63.39841719      69.87450815
C       84.51421539      61.99057133      67.62573423
O       81.19585655      61.19877614      64.44532539
C       84.38949347      66.75835000      73.19097726
C       82.43551680      67.04369862      75.12605668
C       86.98408725      67.56526300      73.69175465
C       79.96375521      65.79081029      75.11849777
C       78.61449085      66.68276096      77.34648471
C       80.30579561      68.44587531      78.65228537
N       82.61882022      68.61784037      77.29546211
C       88.91916667      68.04714312      71.76801359
C       91.31911867      68.32115339      73.09838069
C       90.78810567      67.98478217      75.79690940
N       88.14815846      67.64652121      76.10304501
C       92.68161111      67.71455135      77.79246005
C       95.31399941      67.12873629      77.13294568
C       95.89225556      65.01602264      75.43408201
C       98.51519524      64.43776648      74.77078819
C      100.59011437      65.94009865      75.82714502
C      100.00996849      68.04714312      77.53167786
C       97.38702882      68.64429654      78.17418470
C      103.28864308      65.31837880      75.17707928
C       91.96162551      67.99989997      80.44752506
C       93.42994260      67.10416985      82.61693049
C       92.07122962      67.89596504      84.87704278
C       89.81678651      69.25845748      84.01721745
N       89.76576391      69.27168556      81.33191682
C       87.97619340      70.51134581      85.65372016
C       88.62814886      71.07637388      88.29366736
C       91.00353443      72.36894646      88.90404886
C       91.66871798      72.89618001      91.53643716
C       89.95095706      72.17052523      93.58678986
C       87.56801258      70.89496019      92.97451864
C       86.91416739      70.34504992      90.34402006
C       90.62180978      72.73744303      96.29287747
C       85.48742427      71.21054443      84.67673182
N       84.22508731      70.03324514      82.62826885
C       83.76210444      73.05302727      85.82379550
C       81.37349079      72.87161357      84.45752361
C       81.69852366      70.91952663      82.51866474
C       79.68783632      69.85750062      80.94830245
H       79.16251139      65.59049934      65.93822782
H       80.56279835      68.10572463      69.82915473
H       86.98219753      62.79370487      70.93275471
H       85.70852221      60.44099602      66.91708698
H       79.27776578      64.38863361      73.74088753
H       76.71720596      66.08749727      77.96064566
H       88.63381804      68.12273216      69.70632254
H       93.17860904      68.66130407      72.22721701
H       94.35401861      63.82927472      74.68008134
H       98.92715550      62.85984528      73.47443616
H      101.55198490      69.20365543      78.31969360
H       96.97317883      70.26568143      79.41384494
H      103.87256841      66.38796370      73.46120808
H      104.59066429      65.82482536      76.75311075
H      103.53052801      63.26424665      74.79724435
H       95.19116722      65.99490070      82.56023872
H       92.61358097      67.49723286      86.84613726
H       92.28098920      72.98121768      87.37715026
H       93.46962685      73.84482246      91.97485359
H       86.26977083      70.32426294      94.49952751
H       85.14349414      69.33404652      89.91316254
H       91.70840223      71.12928621      97.10734938
H       91.79532962      74.47788066      96.44027610
H       88.90026941      73.03790946      97.46261786
H       84.17217498      74.31158477      87.43006259
H       79.64817097      73.97143410      84.84302771
C       77.03090047      70.19198212      81.69096476
C       76.21642857      69.60238761      84.27233046
C       73.57648137      69.95387665      85.01879112
C       71.71321154      70.87795265      83.18573802
C       72.52201426      71.43164237      80.59303396
C       75.16763065      71.10660950      79.85415110
C       69.00332558      71.25778758      83.96241540
H       77.58459019      68.85027667      85.65372016
H       72.98499713      69.50223213      86.96330027
H       71.13684511      72.10438482      79.19085728
H       75.76289433      71.59037935      77.91718196
H       68.86917393      71.88517661      85.96741467
H       67.94318930      69.45120953      83.75832499
H       68.06037120      72.72043549      82.78133666
H       87.35825300      66.87740274      77.67907649
H       84.79954511      68.37595544      81.84403257
C       81.30168121      58.63819743      64.41697950
O       81.82702503      57.30027143      66.62606918
C       71.66407866      31.44126100      58.19222209
C       69.12804749      30.94426306      59.17865906
C       68.57437667      28.54053161      60.43154739
C       70.48677937      26.53364261      60.50713643
C       72.93397453      26.94749260      59.26936591
C       73.54246630      29.40602611      58.16009675
O       72.19887112      33.77318287      57.28704334
C       69.99923007      24.16014676      61.86773914
C       67.57282190      22.85812556      61.62396449
C       71.95887592      23.09245158      63.50046239
C       65.67742673      23.28898308      59.64920083
C       63.50424185      21.71862079      60.27847958
C       64.15430759      20.35045917      62.59717337
N       66.63173836      21.04020916      63.36440212
C       74.08479876      24.48140018      64.60973155
C       75.78557105      22.60301255      65.70199317
C       74.64795600      20.11991260      65.23334113
N       72.29335742      20.48651944      64.01068841
C       75.86493954      17.67649690      65.65097057
C       78.63149838      17.52531882      65.85128152
C       80.23587575      18.78954550      63.98045280
C       82.99109624      18.66293386      64.19021238
C       84.17406471      17.24185992      66.25568289
C       82.56779762      15.97196406      68.12462189
C       79.81257713      16.12125241      67.92998011
C       87.00676397      17.07934348      66.44656411
C       74.33237176      15.38425927      65.83049454
C       75.25266832      12.79344494      65.50357194
C       73.10216014      11.12670662      65.93631919
C       70.93842389      12.75187097      66.52402398
N       71.71132181      15.32189832      66.41630959
C       68.41186024      11.88070729      67.23267122
C       68.02446641       9.25965734      68.06416955
C       69.66285884       8.14660874      70.00300952
C       69.30192118       5.51988961      70.79291498
C       67.27235547       3.99110129      69.68553555
C       65.61695550       5.11548825      67.76935340
C       65.99301097       7.73275875      66.95866095
C       66.88494274       1.29635203      70.51134581
C       66.26135206      13.61547575      67.12873629
N       66.04403357      15.73952776      65.51302057
C       63.86328978      13.30178123      68.48366983
C       62.15497749      15.25953736      67.55392464
C       63.54959527      16.70517774      65.64341167
C       62.48377092      18.63080852      63.97100417
H       67.67297738      32.43336714      59.09740084
H       66.74323219      28.28163915      61.38774874
H       74.32859231      25.40358646      59.16543098
H       75.39250804      29.70082336      57.24924882
H       65.87395824      24.50974607      57.97490360
H       61.73923777      21.55610435      59.18621796
H       74.37205601      26.54309124      64.59461374
H       77.59781827      22.98284747      66.65441507
H       79.37416070      19.80810781      62.37985488
H       84.17973389      19.63992220      62.78614597
H       83.43518185      14.91938668      69.69687391
H       78.62770004      15.21040448      69.38128967
H       87.73808792      18.69316948      67.58416026
H       87.61147628      15.28788325      67.36873149
H       87.90627354      17.14359417      64.54548087
H       77.17829910      12.20951961      64.96877949
H       73.10216014       9.04989776      65.79270002
H       71.15007320       9.29556214      70.90062937
H       70.56425814       4.69407936      72.22910674
H       64.09383635       3.97976293      66.91519726
H       64.77035826       8.53778202      65.47711578
H       67.92242121       0.00000000      69.22066296
H       67.58416026       0.98265751      72.47099166
H       64.84405757       0.77856711      70.47922047
H       63.42109390      11.85425113      69.91230267
H       60.18966246      15.56756269      68.16430613
C       59.73234877      18.85757564      63.67809664
C       58.18466319      16.62014007      63.15275281
C       55.43511187      16.84123801      62.93921378
C       54.20490026      19.30922015      63.21322404
C       55.76014474      21.55799408      63.66864801
C       58.50591661      21.33311669      63.90675348
C       51.37598045      19.53976672      63.03936925
H       59.09173166      14.76253942      62.88252200
H       54.29182765      15.14426407      62.55370967
H       54.85685572      23.42693308      63.84250280
H       59.64542138      23.03009062      64.31304457
H       50.41977910      17.71807087      63.47967541
H       50.82418046      20.12558178      61.09484121
H       50.65221540      20.97406875      64.39997196
H       71.37873004      19.09568111      63.04503843
H       67.23834040      16.07967844      64.04281375
C       74.38150464      35.03551983      57.75569539
O       75.92730050      34.27396025      59.74935631
C       32.40880070      41.58719983      72.02879578
C       30.37545554      41.30563066      73.88639643
C       30.20726993      39.02473139      75.44164092
C       32.04030414      36.97248897      75.11093887
C       34.16624587      37.32775745      73.36672178
C       34.41568970      39.67857658      71.93053003
O       32.42769796      43.69991349      70.58126567
C       31.74928633      34.58576504      76.50177720
C       29.28319392      33.34043562      76.62082993
C       33.93569930      33.42358356      77.72820936
C       27.12323711      33.86011026      74.96731969
C       25.03886935      32.30108632      75.86871899
C       25.99885015      30.86678430      78.03434497
N       28.57643640      31.49606305      78.44063606
C       36.29218761      34.71237668      78.41040044
C       38.09498620      32.75462056      79.13794495
C       36.78540609      30.32443294      78.88850112
N       34.25695272      30.79875416      78.14772853
C       37.96081566      27.82999463      79.06046618
C       40.70280807      27.56921245      78.71842578
C       41.95947585      28.75973982      76.55279980
C       44.69012990      28.49895763      76.20509022
C       46.19435179      27.01930218      78.00221963
C       44.94146346      25.84011317      80.17540452
C       42.21269913      26.12357207      80.53823191
C       48.99492571      26.70938712      77.61293608
C       36.40179172      25.59633852      79.53856686
C       37.16335129      22.97150912      79.09448125
C       35.08087325      21.38602901      79.94863740
C       33.11177877      23.09245158      80.88783122
N       33.93191985      25.63224331      80.59303396
C       30.72883430      22.31199475      82.05379215
C       30.44726513      19.73251877      83.03833939
C       32.37289591      18.65537496      84.71641607
C       32.09888564      16.07778871      85.68206605
C       29.87845761      14.56033874      85.01310305
C       27.95093710      15.64126201      83.34069555
C       28.23817545      18.20750990      82.35047913
C       29.57232200      11.92417099      86.03544481
C       28.62367955      24.09400635      82.24845282
N       28.21171928      26.20294056      80.64974464
C       26.44482548      23.84456252      83.94351814
C       24.64958580      25.81743646      83.23865034
C       25.77775221      27.21583369      81.12782642
C       24.51352552      29.14335420      79.60470727
H       28.94682269      42.80796282      74.09426629
H       28.69737886      38.86032523      76.86649431
H       35.57598146      35.81597666      73.11160877
H       36.15045816      40.02061699      70.83259923
H       27.08922205      35.13000613      73.31758890
H       23.13213583      32.18959249      75.04101901
H       36.65690473      36.76083966      78.34426003
H       40.07352931      33.05130754      79.71620110
H       40.84075807      29.82176583      75.15251284
H       45.61609564      29.41358501      74.57992587
H       46.05640179      24.74974127      81.55492339
H       41.30374093      25.27697482      82.21063941
H       50.02104692      28.32321312      78.48976894
H       49.69979350      24.92548579      78.47465113
H       49.47491611      26.64891589      75.56447311
H       38.93780399      22.31388447      78.22709702
H       34.99016640      19.30733043      79.85226137
H       34.01884725      19.79865918      85.28711332
H       33.56909246      15.28221407      86.92361602
H       26.28608850      14.50931614      82.80590309
H       26.80387342      18.97473865      81.04845792
H       30.29608705      10.52766348      84.63704758
H       30.62489937      11.66716825      87.83826230
H       27.54842546      11.49331346      86.42094891
H       26.18971248      22.42537831      85.44396057
H       22.79198515      26.16325631      84.11361237
C       21.74507695      29.36256241      79.65195042
C       20.15581739      27.11756794      79.30424084
C       17.39870718      27.33677615      79.36095151
C       16.19873117      29.80664802      79.74076754
C       17.78799073      32.05542194      80.05635178
C       20.54510095      31.83243428      80.02800589
C       13.36414219      30.02963568      79.81446685
H       21.03265025      25.26185702      78.95275180
H       16.22518734      25.63980221      79.09259153
H       16.90737842      33.92247122      80.32091342
H       21.71673106      33.52751849      80.32847232
H       12.47597098      28.26841106      80.54390109
H       12.62714906      30.39624253      77.87749772
H       12.75565042      31.60755688      81.06735518
H       33.11555822      29.45893844      77.37105115
H       29.17925899      26.49962754      79.01511276
C       33.57098219      43.98148266      68.30414586
O       34.37789518      41.89522517      66.91330753
C       38.34631976      69.77624240      79.49888261
C       36.76650883      71.67919647      80.74232231
C       37.71515128      73.06436562      82.94196336
C       40.23604575      72.51445536      83.95863595
C       41.87821763      70.73811293      82.60559214
C       40.98059779      69.47766570      80.31335451
O       37.34476499      68.47044174      77.53545731
C       41.09776080      73.71632109      86.31134480
C       39.41968412      73.82970465      88.50531668
C       43.65078061      74.76700874      86.47764069
C       37.15012321      72.28957797      88.89082078
C       35.98794173      73.15696220      91.23030155
C       37.59231909      75.18841763      92.21106934
N       39.67668686      75.54746557      90.55566937
C       45.26082715      75.47187653      84.33469142
C       47.76471409      76.01989707      85.36081263
C       47.61164628      75.64195187      88.10091531
N       45.08886209      74.99944503      88.72452489
C       49.74703665      75.64762105      89.85647076
C       52.32840235      75.27912448      88.90026941
C       52.89343042      73.18341836      87.17683931
C       55.47099777      72.79413481      86.25087357
C       57.51947964      74.47788066      87.05778657
C       56.94878239      76.58492514      88.76420914
C       54.36552697      76.99121623      89.66938788
C       60.18210356      74.03946423      86.15638727
C       49.31617912      76.00477926      92.56444810
C       51.10197018      75.36416215      94.58078573
C       49.94923733      76.16729570      96.94861239
C       47.49448327      77.27656485      96.30610556
N       47.12976616      77.12916622      93.64726109
C       45.74081755      78.45197442      98.09189662
C       46.63276822      79.23432098     100.60145273
C       48.92689557      80.76877848     100.86034519
C       49.81884624      81.53789696     103.36234240
C       48.40533120      80.81413190     105.63570166
C       46.10742440      79.28912303     105.37679030
C       45.23059154      78.49543811     102.87479309
C       49.29350241      81.63427298     108.20948956
C       43.09709090      78.84692715      97.39269800
N       41.73270873      77.41640457      95.58423023
C       41.33775600      80.58925451      98.63424797
C       38.83575879      80.08469767      97.58733978
C       39.13433550      78.04190388      95.73729803
C       37.08020335      76.68886007      94.47685080
H       34.84087805      72.04769304      80.03934425
H       36.52462391      74.52512381      83.83013458
H       43.78684088      70.32048349      83.32557774
H       42.31852379      68.35516846      79.17951892
H       36.47927048      70.72866430      87.68517560
H       34.26451162      72.38973344      92.11469331
H       44.70713744      75.54557585      82.32971104
H       49.44845994      76.57358678      84.27044073
H       51.38731881      71.86061017      86.60992151
H       55.87163858      71.21999306      84.94507291
H       58.46623236      77.88316689      89.35758310
H       53.95354780      78.61638058      90.90715841
H       60.52981314      75.14117448      84.39894210
H       61.58616997      74.63850737      87.60580710
H       60.52981314      72.00611907      85.74631673
H       52.93878384      74.40796080      94.36346724
H       50.75237088      75.93296967      98.85534591
H       49.96813459      81.38293942      99.16337125
H       51.55739415      82.67173255     103.53430746
H       45.04161894      78.71464633     107.07187451
H       43.53172787      77.30113129     102.71227666
H       50.43867636      80.10359493     109.09010187
H       50.47647088      83.37093116     108.10366490
H       47.66455861      82.05946133     109.47182652
H       41.79884914      81.99143119     100.10256507
H       37.06319581      81.03900929      98.11457333
C       34.49694792      76.83058952      95.48596448
C       34.02073697      76.38083473      98.17882401
C       31.45070963      76.55468952      99.18982741
C       29.32476789      77.15373266      97.51364046
C       29.79908911      77.56002375      94.81322202
C       32.37100618      77.41262512      93.80788780
C       26.68671041      77.35782307      98.55676921
H       35.59109927      75.87060872      99.44683015
H       31.11433840      76.21264912     101.21561367
H       28.21171928      77.98521210      93.53198780
H       32.70737741      77.78490114      91.78588099
H       26.70182822      77.97576347     100.56743766
H       25.72861933      75.48888407      98.44151482
H       25.54720564      78.75999975      97.47773567
H       44.58808470      74.17552450      90.38937349
H       42.38466420      75.77423269      94.82645011
C       38.09876566      66.16497604      76.70775733
O       39.63511288      64.62295963      78.19119223
C       99.24840892      36.40179172      54.92299613
C      102.88613145      52.06195099      55.75636529
C      100.51452533      58.61363099      41.29618203
C       95.45950831      46.99370588      31.44126100
C       94.63936723      33.25161850      39.82975466
C       96.58389528      32.32187331      48.00470929
C      101.65591983      43.96258540      57.86340977
C      102.44960474      57.72923923      49.48058528